!Keysight Technologies N9917A: A.13.25
!Date: Friday, 27 June 2025 16:55:03
!Timezone: 
!Model: N9917A
!Serial: MY56072049
!GPS Latitude: 
!GPS Longitude: 
!GPS TimeStamp: 0001-01-01 00:00:00Z
!GPS Seconds Since Last Read: 0
!CHECKSUM:1773236835
!Correction: S11(ON U)S21(ON U)S12(ON U)S22(ON U)
!S2P File: Measurements:S11,S21,S12,S22:
# Hz S DB R 50
1000000000	-2.42705201041212	151.424975629928	-10.3549578230838	-70.8921278807315	-10.3609582877885	-70.8681254191016	-2.80262881265033	152.019215679324	
1000500000	-2.42533427564638	151.419590715203	-10.3739213861479	-70.8946298698854	-10.3781459928609	-70.8348477042711	-2.80677553761319	152.019289018679	
1001000000	-2.43543912540613	151.401557646445	-10.3771715122951	-70.9596616476541	-10.3646146276774	-70.8900905645811	-2.80738855132002	152.039043981155	
1001500000	-2.43203064256096	151.375085895539	-10.3763038753263	-70.9217609251627	-10.3700341413847	-70.9131125948915	-2.81063226467066	152.037790266659	
1002000000	-2.44400210544211	151.322195810539	-10.3723927336159	-70.9672961170248	-10.3715503967499	-70.9855694612484	-2.82367739066122	152.013817399777	
1002500000	-2.44763162550298	151.359627835841	-10.3685113638709	-71.0904893919038	-10.3754582533523	-71.0129860529624	-2.82073165887318	151.975023508682	
1003000000	-2.45816734102065	151.277755507546	-10.3939882155088	-71.0351621471741	-10.3822496560137	-71.0369104866621	-2.82249118165188	152.082591122866	
1003500000	-2.4589068002596	151.252847806898	-10.3848505537925	-71.1866215144673	-10.3878431685953	-71.0945536294014	-2.83222434990618	152.035361862032	
1004000000	-2.46827917223522	151.209374872339	-10.3862535989043	-71.1118518595813	-10.3938247638959	-71.1295445328047	-2.83738164399137	152.026082763933	
1004500000	-2.46978384493102	151.205245072539	-10.3966061645986	-71.2278701773497	-10.393202029522	-71.184451712157	-2.84568614294586	151.979934745812	
1005000000	-2.47742056396582	151.155641265503	-10.4030933546544	-71.1660522210891	-10.394272939678	-71.1954011018101	-2.84197103998851	152.034025330121	
1005500000	-2.48362671734625	151.127291050215	-10.3941534516581	-71.2593717957014	-10.3828272885492	-71.2426173328625	-2.85041268670267	151.982636320449	
1006000000	-2.50326900669525	151.092738976054	-10.4176083897887	-71.3868708066838	-10.4064412154466	-71.2981370524592	-2.86684255586582	151.928469183431	
1006500000	-2.50379852789555	151.071184300377	-10.403497668155	-71.3353487776258	-10.402401541625	-71.3015670435278	-2.86817633718805	151.95455683477	
1007000000	-2.51393686530308	151.032799429633	-10.4224385862179	-71.3142229078765	-10.4072183698469	-71.3621684588953	-2.87294144149781	151.916888117158	
1007500000	-2.51460149722522	151.011153085146	-10.4200862246278	-71.4528397239357	-10.4250434928219	-71.3634947489754	-2.88192420211074	151.933272281968	
1008000000	-2.52434594387608	150.971563256303	-10.4178959763188	-71.4982130721531	-10.4173007834456	-71.3666541907361	-2.88936268996257	151.924630418297	
1008500000	-2.54128832227338	150.936622278862	-10.4173034172861	-71.4163114907882	-10.4199764748552	-71.4881125987627	-2.89339715374201	151.895828590624	
1009000000	-2.55079472615179	150.887851351027	-10.4407491311237	-71.490360171933	-10.4285472518145	-71.4398717467936	-2.90074486660315	151.888294572845	
1009500000	-2.55123900485352	150.916214306381	-10.4486249609384	-71.4560182891769	-10.4336342209765	-71.4663615998559	-2.90893546910623	151.884721464832	
1010000000	-2.56633077561744	150.80905493713	-10.4379998095337	-71.5542562263298	-10.4334218155645	-71.5295875307133	-2.91431617218123	151.884996460007	
1010500000	-2.57357433067409	150.800857211304	-10.439396386715	-71.5847942286756	-10.4335636153162	-71.5518246019888	-2.92073292942913	151.835651595608	
1011000000	-2.58186444672031	150.746060451134	-10.4575998343064	-71.5455783743145	-10.4485147883254	-71.5449149648267	-2.93089574653046	151.822945646017	
1011500000	-2.60161564926912	150.706873169072	-10.4605451629328	-71.6452937575461	-10.4534580399178	-71.5435266995736	-2.93220634486015	151.799635882525	
1012000000	-2.60013990516591	150.652419324819	-10.4503184300745	-71.6029741031798	-10.4594207931526	-71.630087352342	-2.94163948273673	151.775323609417	
1012500000	-2.61198553177832	150.604801173747	-10.4703920634065	-71.6669004282038	-10.4631976912829	-71.6661541006479	-2.9455181878366	151.783122856956	
1013000000	-2.61954483097215	150.515624490195	-10.4672847692537	-71.6360103847634	-10.4679640721819	-71.6830413868827	-2.95591468104367	151.769410481215	
1013500000	-2.63713964423764	150.52625405815	-10.4855580065601	-71.7159083480718	-10.4765676075306	-71.6127213884436	-2.9618794776829	151.715050688958	
1014000000	-2.64159195612937	150.49814733214	-10.479608387312	-71.8381522605902	-10.4895229182209	-71.7320337781971	-2.97959299046239	151.645763176801	
1014500000	-2.6476830748016	150.501757846104	-10.4833726497695	-71.8066014323791	-10.4816195425669	-71.7645339193171	-2.98700521213783	151.656404464991	
1015000000	-2.67125798061892	150.400505776352	-10.4936171756025	-71.7971991972485	-10.4934607976685	-71.8572804038301	-2.98470405877839	151.620314180381	
1015500000	-2.67158001563975	150.357414053792	-10.5061843727622	-71.8983774571361	-10.4894927471782	-71.7611990784791	-3.00164309477046	151.611498459107	
1016000000	-2.68598825190282	150.313426166488	-10.505998527135	-71.8077460388655	-10.5058008436787	-71.8498727467705	-3.00081177407548	151.586165819972	
1016500000	-2.69818366085866	150.225187441245	-10.5065009937495	-71.8510180869446	-10.5161245058256	-71.8110600362772	-3.01367394527221	151.563448270885	
1017000000	-2.69791228050026	150.279762269896	-10.5118162341478	-71.9481055688263	-10.5207193230661	-71.8945086535626	-3.02357746824949	151.521698051379	
1017500000	-2.71505508050177	150.179415439802	-10.5221354196837	-71.8851968575794	-10.5211148914495	-71.8810012069571	-3.02800108377648	151.516441959026	
1018000000	-2.72472855692084	150.158744291916	-10.5251311724426	-71.9061193753932	-10.5303794928854	-71.8500078521332	-3.03797868962947	151.430732565711	
1018500000	-2.73573842390053	150.07758321276	-10.5399246963074	-71.9200972692199	-10.5391624086574	-71.8751057506809	-3.05644251760008	151.42103840666	
1019000000	-2.73283720894781	150.040582891611	-10.5315327587401	-71.9365455268928	-10.5332113105724	-71.7667985678925	-3.05171800801892	151.385680919365	
1019500000	-2.75297914463517	150.027996643047	-10.5484337690537	-71.9120927428329	-10.5457029540368	-71.8851098228523	-3.05570707921228	151.413085485423	
1020000000	-2.76593462069661	149.95707984795	-10.5586343469869	-72.0630202399531	-10.5485201355351	-71.9946000366837	-3.06757185494782	151.33879077167	
1020500000	-2.76659797841114	149.86565785159	-10.5409697086795	-71.9248984117701	-10.5542904715872	-71.9162037504537	-3.07499461260177	151.271136040881	
1021000000	-2.78921683523021	149.83737754281	-10.5556187489528	-71.8605866908532	-10.5591817132013	-71.9177537918248	-3.07991631865021	151.206929711114	
1021500000	-2.78619084750376	149.763854717703	-10.577229877927	-71.9208416290492	-10.5713943064047	-71.914046831883	-3.08830940960279	151.207919838532	
1022000000	-2.80780366728205	149.756888908946	-10.5703049652881	-71.9825778863552	-10.5784697716235	-71.9290454208873	-3.09512402363337	151.225503353257	
1022500000	-2.8135936655866	149.670320251312	-10.5917878647208	-72.0037743671385	-10.5763233327376	-71.951287826489	-3.1072465939481	151.129087935772	
1023000000	-2.81686762368626	149.687903247335	-10.5836867919866	-71.9284135771022	-10.5944577407682	-71.925611261877	-3.10908046292364	151.114628511971	
1023500000	-2.8229305637871	149.574581332681	-10.5893598888673	-71.9014254890183	-10.5744187101027	-71.9672712831501	-3.11636051690067	151.068477300285	
1024000000	-2.83885304187196	149.541677476011	-10.6161171840439	-71.929748018	-10.5926175370787	-72.0684618885811	-3.13683568894032	150.984484716074	
1024500000	-2.85405873313615	149.45053328772	-10.603472596602	-71.9690632380896	-10.6066770244502	-71.9507614374679	-3.1332568973033	150.965411553942	
1025000000	-2.86441020460553	149.430365437249	-10.6244390358122	-71.9839312526067	-10.6113574972121	-71.8599217090767	-3.14759201790007	150.881281305498	
1025500000	-2.86083132442847	149.404689834009	-10.6124407535098	-71.9760028157143	-10.6087418863887	-71.9118960573583	-3.14504057761803	150.900142182517	
1026000000	-2.87122739394832	149.312093909649	-10.6278709314693	-72.0432731289419	-10.624073215298	-71.9894190965496	-3.15719014358309	150.867448431775	
1026500000	-2.87970088770561	149.291882380904	-10.6356459325269	-71.9448623515485	-10.6234850454961	-71.9328513286144	-3.1662403597578	150.771830124394	
1027000000	-2.88941846698297	149.233450430714	-10.6460472198534	-72.0232616376395	-10.6496006237638	-72.0703401039102	-3.16911600144735	150.75062140873	
1027500000	-2.90173312479642	149.148249165237	-10.6475078536106	-71.9895552246053	-10.6421774565651	-71.9578321758702	-3.17582099369296	150.647534917412	
1028000000	-2.90633439050952	149.083654814211	-10.6646168452673	-71.9932890724519	-10.643475446155	-71.8522957536095	-3.18921328300553	150.64438482522	
1028500000	-2.9130320349535	149.128667699461	-10.66354672727	-72.0017610289024	-10.6462816115739	-71.953359177495	-3.18443775179188	150.549365688524	
1029000000	-2.91835728564864	148.966704913446	-10.6547924086258	-72.0261552902392	-10.6420630965282	-71.9838886408702	-3.19478173525231	150.514689433347	
1029500000	-2.93283051462874	148.977546627637	-10.6625003833926	-71.9448226896561	-10.6782676382743	-71.9496954174865	-3.2067547098992	150.458320671168	
1030000000	-2.92015104277312	149.032901749489	-10.6775239111578	-71.8278273929861	-10.6791554278924	-71.8751447891255	-3.2040953673119	150.456258135907	
1030500000	-2.94530030721932	148.864888393812	-10.6867452290725	-71.9727455285917	-10.6550409750851	-71.9965218102815	-3.20701147239089	150.358703817952	
1031000000	-2.95189291094327	148.817954644466	-10.6817808347032	-71.9503570279985	-10.6629291602859	-71.906074094479	-3.21036428062745	150.299394704746	
1031500000	-2.96575521760527	148.742850836025	-10.6847143777502	-71.841749244494	-10.6925812614204	-71.9362594930066	-3.21836726956064	150.257356508384	
1032000000	-2.95901715823324	148.722618345844	-10.6968881237835	-71.9622560585819	-10.6812255122097	-71.9139379410145	-3.22192058920326	150.198157581958	
1032500000	-2.96665735772497	148.654938041249	-10.7001168463764	-71.8902992085981	-10.6948846912522	-71.9475629979176	-3.23352739674814	150.124853811586	
1033000000	-2.98006141172901	148.615905731131	-10.6919447249583	-71.8719831401522	-10.708491162168	-71.8971766291183	-3.22909194186766	150.10949811245	
1033500000	-2.97918490301429	148.513374318221	-10.7144822962269	-71.8358527373503	-10.7119594611539	-71.9621515996956	-3.23706469506402	150.000415151989	
1034000000	-2.97944132501493	148.437796435906	-10.7223458334616	-71.942584632372	-10.7148827216261	-71.9106803708842	-3.2457344196333	149.904049159332	
1034500000	-2.99622975537924	148.463195817988	-10.7375678996155	-71.8393591790173	-10.7156694319833	-71.9053835029694	-3.23871471449482	149.89586229599	
1035000000	-2.99278535460696	148.353870560112	-10.7299751550519	-71.8634475164433	-10.7136137317068	-71.7994572694106	-3.25110842600483	149.794880624683	
1035500000	-3.00342780173915	148.340332196252	-10.7344604454575	-71.8372544991188	-10.7144845026747	-71.8198499927954	-3.24852561586848	149.630380464378	
1036000000	-3.00117376072059	148.300176650281	-10.7350397693347	-71.6416033719918	-10.7358909003754	-71.8180864793154	-3.24651718010701	149.693797687469	
1036500000	-3.01308000262803	148.240512474187	-10.7559848609943	-71.7687991617066	-10.7336031953445	-71.8844482020963	-3.2598450658163	149.547197850986	
1037000000	-3.01518164762625	148.215323046829	-10.7300772545041	-71.7682241466045	-10.7321058123968	-71.7330047784882	-3.25523706041765	149.57490690308	
1037500000	-3.01008513339875	148.131453721434	-10.7664218809511	-71.6645756010968	-10.7498098539662	-71.7554875937841	-3.25168258028075	149.513859029259	
1038000000	-3.00395727034602	148.061163712293	-10.7563137479227	-71.6508490824122	-10.7557523246142	-71.741827962949	-3.26379640220119	149.422869344262	
1038500000	-3.02396811040767	148.016254060721	-10.7420612957536	-71.6978546832096	-10.746189193725	-71.7846770043243	-3.2515696995764	149.380737127836	
1039000000	-3.01889216851334	147.959087035198	-10.7653732081867	-71.679686687752	-10.7546930673279	-71.7095838979151	-3.26196636712903	149.251072100078	
1039500000	-3.02024368825011	147.933115034823	-10.7539308167176	-71.5475981366426	-10.7356572770791	-71.7399826827833	-3.26019347864719	149.242505011619	
1040000000	-3.01593331966949	147.928811051339	-10.774548507516	-71.6744267699768	-10.7723533675993	-71.64430102229	-3.26393268393646	149.102533215288	
1040500000	-3.01844982983832	147.861344938383	-10.791986410915	-71.6231398852664	-10.7886855773501	-71.6226628322114	-3.26612837679079	149.078472097429	
1041000000	-3.01906048426962	147.77816753731	-10.7739815434752	-71.5946360672176	-10.7846887865913	-71.6742290364953	-3.25527901968279	149.056736695369	
1041500000	-3.02297326201022	147.786010629451	-10.7813807493786	-71.4632263148395	-10.7821713123577	-71.6413541561376	-3.26610098041049	149.026257094123	
1042000000	-3.01486295366449	147.713539444317	-10.7817687355074	-71.5525119331393	-10.7824807598953	-71.5603336393548	-3.27359683698996	148.924420244414	
1042500000	-3.02562252847283	147.657942928305	-10.794560835766	-71.6436885408843	-10.8050998974413	-71.5723710722547	-3.25938185311433	148.869498425327	
1043000000	-3.01915535417664	147.5616359605	-10.8021802380233	-71.4978072646925	-10.771665414226	-71.4894373685129	-3.2587067152794	148.815035484871	
1043500000	-3.01681200838079	147.559767822939	-10.7996435349608	-71.4042066086894	-10.8054220903872	-71.4300283772646	-3.26737075303522	148.676223207128	
1044000000	-3.01391118262188	147.587216555893	-10.7979833367787	-71.4286792124356	-10.7951731897326	-71.4890645862167	-3.26098412569103	148.679668225353	
1044500000	-3.01700522051912	147.436476398887	-10.7887281063642	-71.461514866525	-10.8023185483141	-71.4883546989065	-3.26933503715289	148.614871873165	
1045000000	-3.01063465671841	147.529271494885	-10.8119614457752	-71.4102226941251	-10.7993343164819	-71.4404716629826	-3.26235711399697	148.485359381977	
1045500000	-3.01179727251212	147.403525302771	-10.8135449590563	-71.3473393050592	-10.817500461994	-71.3966072859299	-3.25204921990981	148.516207864983	
1046000000	-3.00443559478923	147.423289741924	-10.8031092022583	-71.2835591058755	-10.8094607935499	-71.4264902949276	-3.25273951488389	148.427313660978	
1046500000	-3.00009351438804	147.414470299902	-10.8051613095567	-71.3451944718449	-10.8261448966496	-71.4635406470222	-3.2556969092925	148.313753964944	
1047000000	-2.99831101167843	147.30486052763	-10.8155730093097	-71.2936428839503	-10.8155423328229	-71.2340593238319	-3.24848520466133	148.308546550852	
1047500000	-3.00382244301603	147.290705810214	-10.8132442618966	-71.3607650603275	-10.8100627072058	-71.4220843259449	-3.24119010996638	148.198457356737	
1048000000	-2.99712755888501	147.221756812734	-10.8382612981455	-71.266028482301	-10.8167581304944	-71.4116108450108	-3.24140109497755	148.19339504508	
1048500000	-2.99574184398558	147.259435150911	-10.8198638803711	-71.311255863078	-10.8137276752245	-71.3232829702892	-3.24497285864091	148.089736253338	
1049000000	-2.99451256850317	147.188521560849	-10.8265092286829	-71.2012961691404	-10.8235557137123	-71.3269141705923	-3.24934483211413	148.036434715954	
1049500000	-2.99060793953971	147.141078184902	-10.8257627166493	-71.2216539719376	-10.8029347574077	-71.3012910681134	-3.23552876684194	147.954752753447	
1050000000	-2.98024188389144	147.088492762836	-10.8260975450404	-71.3038245945526	-10.8131393799604	-71.2891580012126	-3.24017375777016	147.891835845959	
1050500000	-2.97581746867062	147.106745262142	-10.8063405953966	-71.188449748242	-10.8223426692372	-71.1116357845046	-3.23069815204978	147.900145180722	
1051000000	-2.96729297183167	147.073126652081	-10.8380142298094	-71.1803772702843	-10.8126523683443	-71.1973290358527	-3.22049329443826	147.831205470163	
1051500000	-2.95874246856375	147.014853715119	-10.8237382470542	-71.1551054970882	-10.8262553637229	-71.068267136515	-3.2135463310086	147.76888545068	
1052000000	-2.95608153189472	147.025229448541	-10.8258829339294	-71.1038799526174	-10.8194825589799	-70.9510667275683	-3.21625462343172	147.670340926699	
1052500000	-2.95961696270092	146.983938047089	-10.8250062628983	-71.0560207375103	-10.8238751248043	-71.0445726871047	-3.20870814336885	147.62952639916	
1053000000	-2.94446237610769	146.903300227873	-10.8242696046569	-71.0705565623878	-10.81916912873	-71.0157299123979	-3.20503752558355	147.60728787731	
1053500000	-2.9381797417176	146.978846607237	-10.8411453871341	-70.9819811904566	-10.8362953961097	-71.0888649309154	-3.20099946964582	147.520259951699	
1054000000	-2.93056255843685	146.997769732891	-10.8178773500211	-70.9441494557786	-10.8409190549706	-71.0319725231539	-3.20155599321644	147.403481853795	
1054500000	-2.92495834696336	146.911052938002	-10.8272395055598	-70.9941516352072	-10.8264998153765	-71.0736779044947	-3.186455128064	147.435528108841	
1055000000	-2.92139868805891	146.902329442127	-10.8276622868938	-71.0455445790585	-10.811957797774	-71.0167830246789	-3.18571416430582	147.368601248114	
1055500000	-2.91290342401687	146.867627627928	-10.8343053057837	-70.8559360725835	-10.8132502724935	-70.8096508858881	-3.18864861812907	147.301697660822	
1056000000	-2.90574990402922	146.807651551681	-10.8252540184631	-70.9668995401055	-10.8141833214277	-70.9376498173803	-3.16872606515246	147.227918724655	
1056500000	-2.89734931070389	146.806444800811	-10.8221127608159	-70.8698661613847	-10.8125940491412	-70.9334936332044	-3.17992785104035	147.234960997833	
1057000000	-2.88516553768035	146.809541599908	-10.8210074972255	-70.9381878341407	-10.8221001882845	-70.9608084901391	-3.16438343542451	147.104998460536	
1057500000	-2.8817019752059	146.824793356017	-10.8337865110232	-70.852660904202	-10.8109908591908	-70.8563835815458	-3.16179012861961	147.120476678271	
1058000000	-2.87526277723184	146.843736654265	-10.8318306574284	-70.8126707400534	-10.8251768554941	-70.8468775418805	-3.15169883169846	147.025576513561	
1058500000	-2.85723186346167	146.788196185458	-10.8364731480169	-70.7755024248106	-10.8163807792942	-70.8981472842393	-3.15484295282431	146.941082536671	
1059000000	-2.85705893605116	146.803567401136	-10.8265749977008	-70.8254158481932	-10.8166247197858	-70.6785221764778	-3.14805979427406	146.966617736127	
1059500000	-2.85278625567466	146.798621069514	-10.8212033728096	-70.8150364241751	-10.8289945044521	-70.8511246459052	-3.13411523883378	146.94776859554	
1060000000	-2.85022827288848	146.754516101586	-10.8261588609974	-70.8291266536401	-10.8069921502336	-70.8038307554113	-3.12783005235218	146.81620179375	
1060500000	-2.84122100522328	146.830503589515	-10.8112676432731	-70.8122846617302	-10.8123104259416	-70.7951155145605	-3.12537282821875	146.849764250227	
1061000000	-2.82759208181199	146.810181240503	-10.8322821235349	-70.619792437554	-10.825957176124	-70.7421614650472	-3.11494168682198	146.842363795025	
1061500000	-2.8175059016661	146.707518475942	-10.8099872483742	-70.7306996609052	-10.79445376057	-70.7196521943958	-3.10325226978675	146.694777907094	
1062000000	-2.81029821797876	146.697066286544	-10.8122975955831	-70.614646691165	-10.8105555593404	-70.6962628748282	-3.09767908632376	146.699490644075	
1062500000	-2.79705782443186	146.699512858654	-10.8077207318374	-70.6526832983187	-10.8062005821922	-70.657759826418	-3.08715839135996	146.633256532147	
1063000000	-2.78897526120296	146.718958506176	-10.8035516167278	-70.6168935155354	-10.7988477131534	-70.6303494013727	-3.08714505731386	146.662649779243	
1063500000	-2.78010191437188	146.817283901815	-10.8061598167683	-70.7007395635189	-10.8162687946095	-70.620533004036	-3.07432318355126	146.547819923623	
1064000000	-2.77676428851344	146.737124321652	-10.814268151557	-70.6659941743786	-10.8086733362814	-70.6040193389527	-3.07370111024324	146.593915576466	
1064500000	-2.76569052512722	146.749414027248	-10.8080057469114	-70.6650270107718	-10.7928665550824	-70.5803818755336	-3.07027625931409	146.483920288242	
1065000000	-2.75346213990253	146.781681045071	-10.7862895285253	-70.5494104021593	-10.7871924456637	-70.599218697557	-3.05757705694496	146.449102078522	
1065500000	-2.74081294280052	146.755448884448	-10.8038003568625	-70.6453042176892	-10.789434338035	-70.5596001423094	-3.05774378101907	146.401459256178	
1066000000	-2.74305282218549	146.786747498409	-10.7697484106202	-70.6309597021042	-10.7828844091628	-70.5956731824319	-3.04878337960785	146.390187818151	
1066500000	-2.7219149614357	146.766716940089	-10.7825629927785	-70.4279100803742	-10.7841791934103	-70.5424178597464	-3.03920961517492	146.407266317273	
1067000000	-2.71346671262551	146.776445093319	-10.7862378713882	-70.5458964761935	-10.7827304186016	-70.4772474766687	-3.02984715799582	146.38179462428	
1067500000	-2.71851355178622	146.745133966372	-10.7910079192656	-70.5303001673998	-10.7673138512073	-70.5230466001107	-3.0256285804025	146.280003700582	
1068000000	-2.70712143402674	146.828153382372	-10.7911779165261	-70.5564922020565	-10.7807426184281	-70.4542662747218	-3.01593062894417	146.36115536532	
1068500000	-2.69506527014034	146.792019858089	-10.7769529354344	-70.5114467651446	-10.7824616458456	-70.6088026568261	-3.01592377428582	146.30959581866	
1069000000	-2.69868524640042	146.789712632283	-10.7852204696662	-70.5377406158881	-10.767499207933	-70.5384514176731	-3.0170169291062	146.254852724118	
1069500000	-2.67594128829886	146.836853420887	-10.7660018962128	-70.5486033723591	-10.7683423327517	-70.5230051931069	-3.00098833767097	146.224473319429	
1070000000	-2.67014150896306	146.790555329078	-10.7723698024167	-70.4817283837495	-10.7607488528853	-70.5509398982964	-3.00359254574122	146.213644957069	
1070500000	-2.66039286768502	146.884660406107	-10.7552647256984	-70.4850122908654	-10.7606068516214	-70.4592585648803	-2.99845328127149	146.188650773378	
1071000000	-2.65713086494294	146.846801924852	-10.7494329930306	-70.5726362964154	-10.747114880943	-70.4347937298331	-2.98596294392085	146.124569149146	
1071500000	-2.6365084224719	146.84441227058	-10.7458137514128	-70.4227948909777	-10.7551720705742	-70.4637806932992	-2.98340408278724	146.147264991881	
1072000000	-2.6331281507991	146.860781509571	-10.7637933344622	-70.4033380969709	-10.7406521641076	-70.5274138526984	-2.97537972560976	146.072908981917	
1072500000	-2.62526632897665	146.859923332115	-10.7459574649151	-70.4415915371603	-10.7452940251387	-70.5670696892755	-2.96825443886416	146.101797459152	
1073000000	-2.6128855888712	146.907858870582	-10.7404470236452	-70.4461788649855	-10.7479864473314	-70.4966355705953	-2.95914176922247	146.104456332101	
1073500000	-2.61005012032305	146.913182892903	-10.7338176648454	-70.4897486336205	-10.7289834231854	-70.5394122549654	-2.95170426255652	146.102099474472	
1074000000	-2.59655615107753	146.927845274319	-10.7399289147384	-70.4931124531112	-10.7309700801155	-70.5604081807638	-2.95256614735152	146.083057395053	
1074500000	-2.59235601626388	146.962334464572	-10.7297819910382	-70.4284309819515	-10.7224166145973	-70.4482185847745	-2.94258540583517	146.087740272556	
1075000000	-2.58662858783363	147.013427043798	-10.7184469404582	-70.4486001399499	-10.7169262264211	-70.4493630295959	-2.94640120826157	146.026299173069	
1075500000	-2.57918371373713	146.946296204856	-10.7329470497946	-70.3580055866218	-10.7183994849406	-70.5068651145427	-2.93218177404128	146.03379438746	
1076000000	-2.57650329498078	147.026120681306	-10.7156339045431	-70.3671301963205	-10.7144887699711	-70.5704113937072	-2.93446487000888	145.986557147063	
1076500000	-2.56741339207161	146.975668329984	-10.7157864596945	-70.3867954991092	-10.7067458175607	-70.4652319117875	-2.92839321089098	146.005697803595	
1077000000	-2.56127457779829	146.97248784157	-10.7203500195371	-70.4624580869839	-10.7096221643835	-70.4532732558305	-2.92420808338047	145.998701603898	
1077500000	-2.54951733358463	147.058433573713	-10.7080688843321	-70.3906865112362	-10.7093424715696	-70.4861517606749	-2.92035594709572	145.973130970525	
1078000000	-2.54486242342236	147.019099906237	-10.6966066701917	-70.4071930226018	-10.7001536770131	-70.5076236385941	-2.9236873161144	145.958640167897	
1078500000	-2.53871900752697	147.043479693258	-10.692317094669	-70.531538567078	-10.6744872415757	-70.6354861257808	-2.91050163862776	145.969086088137	
1079000000	-2.5336205120554	147.055951783705	-10.6963868481925	-70.4592352688262	-10.6926729526249	-70.5927418670265	-2.9092400754727	145.921457226826	
1079500000	-2.52641544758844	147.032629577169	-10.6819806151425	-70.5372244642472	-10.6826288536419	-70.4942718196344	-2.90446252413544	145.959073450984	
1080000000	-2.52799781548657	147.127593061335	-10.6778638428511	-70.4841474908127	-10.6798459285448	-70.5901964076285	-2.89727641061358	145.900621801959	
1080500000	-2.51337077107953	147.076795283319	-10.6821682267722	-70.584068563364	-10.6751698577064	-70.5489136942991	-2.90633393261367	145.916058525155	
1081000000	-2.51044666057566	147.113214168832	-10.6821930705173	-70.5601793614955	-10.6713069786535	-70.5417719455583	-2.90053298114714	145.916327830793	
1081500000	-2.51111522664283	147.109995942528	-10.6638569282109	-70.5496552318946	-10.669681198359	-70.6208555721909	-2.89747593797851	145.903473309744	
1082000000	-2.50409901226829	147.096846447417	-10.670611030522	-70.5922362816649	-10.6724797702668	-70.7179473804487	-2.89686991428006	145.945109440488	
1082500000	-2.50102297009412	147.125237675207	-10.6671273788654	-70.6313291027638	-10.6703623250116	-70.6291209607782	-2.88969406945982	145.893823721658	
1083000000	-2.49920914163067	147.125552793055	-10.6609030139269	-70.5825972051123	-10.6517318120306	-70.6421749616905	-2.8906014930139	145.886255659809	
1083500000	-2.49145446751363	147.132530438552	-10.6504611263092	-70.5840496315345	-10.6546491341659	-70.7460829328352	-2.8855264116807	145.884220921927	
1084000000	-2.48886175264564	147.135044276638	-10.6486239583785	-70.5753952780778	-10.6472975518093	-70.7269066385517	-2.88519674098308	145.90186990486	
1084500000	-2.48896631764956	147.138705321411	-10.6444312770496	-70.6702456387331	-10.6460023234822	-70.7334442016764	-2.88771635572481	145.907513283374	
1085000000	-2.48149885495512	147.10162165928	-10.652203010941	-70.5788300041674	-10.6449838618334	-70.7004769696243	-2.8919098321401	145.908505842787	
1085500000	-2.48675006873368	147.170062236897	-10.6455927310025	-70.6589243282409	-10.6371309568259	-70.7953056555428	-2.8880715383646	145.87801249692	
1086000000	-2.4826125843878	147.155194346431	-10.6356020196417	-70.7846242724594	-10.6504381171152	-70.7612668513805	-2.88500889835223	145.87381360569	
1086500000	-2.48535896762246	147.156560967633	-10.6446818305884	-70.7584224534292	-10.6258847266934	-70.8114075918151	-2.87980589799335	145.885327181382	
1087000000	-2.47889643427378	147.144930031411	-10.6335559074931	-70.7928113653986	-10.628363548423	-70.7987965489851	-2.88229399115898	145.884464352421	
1087500000	-2.48112975188524	147.171111894575	-10.6380975466008	-70.8500936289675	-10.6322460854602	-70.9339998341212	-2.89101928346746	145.903481303778	
1088000000	-2.48482489522391	147.196377605228	-10.6186600007324	-70.8296957162772	-10.6239065431105	-70.8712542343855	-2.88271197915221	145.855642144799	
1088500000	-2.48062860143004	147.139413882278	-10.6143278132436	-70.8857968920505	-10.6100641043164	-70.8758966091087	-2.89569851337736	145.879314051559	
1089000000	-2.48122003035381	147.155296673066	-10.6131933064742	-70.8002357256105	-10.6090744375582	-70.8073435355836	-2.88945398703019	145.866253587409	
1089500000	-2.48604154137104	147.131921718649	-10.6128203369808	-70.8785622713049	-10.6268717431232	-70.8854839912269	-2.89342661080268	145.880747964171	
1090000000	-2.48221306149304	147.181695313701	-10.6057559436688	-70.8617841352528	-10.6026845710983	-70.9600760911558	-2.89477242232167	145.842112998367	
1090500000	-2.48498729517208	147.162035789334	-10.6080090875839	-70.9592274817407	-10.607572805613	-70.9657680112642	-2.904672069191	145.866918862567	
1091000000	-2.48220949174512	147.188944294389	-10.6067730314879	-70.9538804236929	-10.5975352996927	-70.9864043043144	-2.89387254978411	145.848263922917	
1091500000	-2.48584125648685	147.141118892048	-10.6044209290202	-70.9806319939355	-10.6163900993465	-71.0245313142675	-2.90180449833555	145.865128468453	
1092000000	-2.48663657480426	147.156407167697	-10.6009974835425	-71.0751242829213	-10.5962518495359	-71.097329802612	-2.90306451090322	145.835292348354	
1092500000	-2.49308000527132	147.08988239066	-10.5913067007458	-71.03650209079	-10.5819874269271	-71.1072207095952	-2.90616222231169	145.840088022799	
1093000000	-2.50163471548567	147.135595551848	-10.6007774217351	-71.0150669998235	-10.6069951917333	-71.0699285772567	-2.90824830183777	145.854623907432	
1093500000	-2.49862490006394	147.093751265338	-10.5869170010847	-71.1729019094773	-10.598809290419	-71.1008377731968	-2.91437307400084	145.866269978163	
1094000000	-2.50065319864763	147.109517934547	-10.592079160876	-71.1769770006513	-10.5843591781073	-71.1657042087342	-2.91574278955656	145.848637530565	
1094500000	-2.50702349370219	147.090423397326	-10.593951534072	-71.1545718133268	-10.5863694759012	-71.2015602987424	-2.91481854988726	145.832394128422	
1095000000	-2.51458149484094	147.078019386241	-10.5808224546628	-71.2054677970308	-10.5861867574779	-71.2354399831676	-2.92695537614144	145.836269094388	
1095500000	-2.52648638102384	147.052774705465	-10.5774785310119	-71.2580087471225	-10.580128855852	-71.303858913102	-2.93256034913273	145.791089488314	
1096000000	-2.52215759747495	147.051486284856	-10.588784086117	-71.2251861834586	-10.5771837489074	-71.2631231151946	-2.92763833251754	145.78040557531	
1096500000	-2.52388256167881	146.997171505653	-10.5955995843023	-71.1875433712378	-10.5781944878613	-71.2673878142529	-2.93529238412014	145.805009507217	
1097000000	-2.53266656772035	146.961086007233	-10.5857433425873	-71.4039269429118	-10.586910206631	-71.3649954584635	-2.94680580889086	145.809819841685	
1097500000	-2.54183036892008	146.961829891317	-10.5789992548329	-71.3611433091885	-10.5748058259139	-71.4447240185536	-2.94763964121857	145.848644193986	
1098000000	-2.54816455458936	146.905707443959	-10.5750780139264	-71.3862619300902	-10.5842303373607	-71.2836674845291	-2.95977874200121	145.768038358511	
1098500000	-2.55731712158262	146.900978391093	-10.5878206134064	-71.4775963163815	-10.5823719562325	-71.5192208793321	-2.95942375668333	145.764118028331	
1099000000	-2.56161599577355	146.846240982236	-10.5778338303625	-71.4766231650254	-10.5791761059578	-71.4180595054686	-2.97153360182168	145.791002740257	
1099500000	-2.56915772110926	146.859826597011	-10.5732538357585	-71.4752283059898	-10.585546351709	-71.4935419541024	-2.96826227403508	145.782925027856	
1100000000	-2.57372907319281	146.78546757658	-10.5704195962449	-71.4992102016036	-10.5783793427906	-71.4715654900465	-2.98696742527591	145.76304563821	
1100500000	-2.5815463891286	146.760974127391	-10.5713251281279	-71.5794238362544	-10.5662313193459	-71.5119562985946	-2.98332700615806	145.721755778055	
1101000000	-2.59548734926324	146.750327803073	-10.5770786537002	-71.6304211586357	-10.5801935874689	-71.6088956086427	-2.99947460926878	145.720874640791	
1101500000	-2.60407845493339	146.716545181684	-10.5782829664093	-71.6311032336718	-10.574346580504	-71.630251616352	-2.9964017790526	145.720167563998	
1102000000	-2.60506905821602	146.666177344643	-10.5754946792892	-71.6441140676808	-10.5679924455316	-71.5900395011219	-3.00914402423888	145.696530234394	
1102500000	-2.61956504959239	146.650639514813	-10.5845093594911	-71.730940452384	-10.5721997093803	-71.7056263859436	-3.00872493949778	145.664184381745	
1103000000	-2.63237073792244	146.555316705535	-10.5664513107088	-71.736886645101	-10.5704164893807	-71.7905247598383	-3.02694331529281	145.648459769215	
1103500000	-2.63414738564078	146.568069653862	-10.590246330133	-71.7629179142676	-10.5730761342987	-71.6678834651621	-3.02923224870761	145.674712261031	
1104000000	-2.64539356108079	146.479168933147	-10.5699700721973	-71.8042928970926	-10.5893487381379	-71.6611062302246	-3.04019929030085	145.658803391381	
1104500000	-2.66010435229702	146.40971419525	-10.5732534074012	-71.8448605956066	-10.5708046453696	-71.7624613684	-3.04570791617783	145.628975136434	
1105000000	-2.67189005893705	146.379798094968	-10.572937516991	-71.8420615219937	-10.5690752053632	-71.8735070042563	-3.05513236393331	145.58268025605	
1105500000	-2.68026052140635	146.307609290559	-10.5774602882556	-71.9261452316052	-10.5835480717087	-71.8700801279039	-3.06082529919024	145.568440033389	
1106000000	-2.69442515221158	146.306840353425	-10.590822751354	-71.880620650616	-10.5775529416146	-71.9277211087967	-3.06778329614681	145.518911479396	
1106500000	-2.70497303078244	146.25643685055	-10.605131779748	-71.9517897636001	-10.5838308511173	-71.8964118885805	-3.0783012280242	145.488413098165	
1107000000	-2.71545374865944	146.147011544408	-10.5888243343459	-72.064703271321	-10.5866603985972	-71.9612703205583	-3.0899803232741	145.560595929117	
1107500000	-2.72379495038949	146.110078609975	-10.5810188144481	-72.0751252322857	-10.5858253953949	-71.9994827497356	-3.10068595412339	145.52904090715	
1108000000	-2.73745034198966	146.035786192606	-10.6024932416423	-72.09149227443	-10.6071728221971	-71.91929044848	-3.1107738229836	145.470326505074	
1108500000	-2.74725083220368	145.986418503729	-10.6011638441547	-72.1083277353918	-10.5942742160585	-72.0188926525813	-3.1262446113431	145.442731913512	
1109000000	-2.75623203680779	145.905592047699	-10.5895809084967	-72.1346762857546	-10.5938585176687	-72.0807006442786	-3.11985746897337	145.407731601994	
1109500000	-2.77315842480461	145.84548916969	-10.5975227459002	-72.1140483266733	-10.5870467271162	-72.0674720121213	-3.13889457857551	145.409102214228	
1110000000	-2.7879000465277	145.778507784939	-10.5860904070149	-72.3063214910077	-10.6002955074007	-72.1851064707468	-3.14622342723276	145.360093419241	
1110500000	-2.78956834104048	145.712974038667	-10.6030003442881	-72.1920480086029	-10.6040514878724	-72.0416578102795	-3.15498345085154	145.353682010278	
1111000000	-2.80951330178829	145.615438493569	-10.6131942782246	-72.2437805393622	-10.5923556979713	-72.1773182011137	-3.16537436467384	145.361124123571	
1111500000	-2.82372010110941	145.580731573925	-10.6126629657925	-72.2435317998337	-10.6017468551024	-72.2185288564964	-3.16717883210257	145.34881534506	
1112000000	-2.83115351789168	145.533791188368	-10.6107964941849	-72.2491894784993	-10.6027779312072	-72.2420965468536	-3.17758513234649	145.242137169814	
1112500000	-2.84698116191169	145.396388647834	-10.6095246086444	-72.3291934462671	-10.6084989049847	-72.1937536217893	-3.19320363485795	145.187580078295	
1113000000	-2.85575039662211	145.337308189863	-10.6197492214784	-72.3549084972871	-10.6237205142856	-72.2193646618458	-3.20116965374435	145.150241686587	
1113500000	-2.87526167524516	145.216187947457	-10.6110658916907	-72.3123144077614	-10.6212634609541	-72.2713306787477	-3.21606952973454	145.130463850506	
1114000000	-2.87110781719564	145.205199871133	-10.6031531466679	-72.3671180294615	-10.6245631942485	-72.324866068148	-3.2176167105919	145.038879438212	
1114500000	-2.89388557183709	145.120377503863	-10.6355074794413	-72.4181222602926	-10.619816613197	-72.3735946522146	-3.2279121515569	145.086626722796	
1115000000	-2.91065234790385	145.038619844137	-10.6349429191883	-72.3904689650819	-10.6319888366742	-72.2572252235079	-3.23965853775773	145.070411110296	
1115500000	-2.91593743350779	144.938098770922	-10.6224721962644	-72.4080883654781	-10.6170315534965	-72.4083487449286	-3.24186819141151	144.980287628695	
1116000000	-2.92692516386567	144.904479086534	-10.6467048066628	-72.4345375916933	-10.6243900598571	-72.4740679716054	-3.25063208071513	144.890090119961	
1116500000	-2.9578904164563	144.784096173835	-10.6347570458847	-72.5017203091351	-10.6397452805491	-72.3977383836757	-3.26646536833546	144.923681576968	
1117000000	-2.95838837714021	144.698440601038	-10.6463566803196	-72.4870055290411	-10.630392412698	-72.6058252349525	-3.27769092511189	144.869793189498	
1117500000	-2.97111401505949	144.598386168996	-10.664340015743	-72.5142225938756	-10.6381623128127	-72.4686868380432	-3.2831984025716	144.815467147686	
1118000000	-2.97431581842364	144.537723752271	-10.6567497141767	-72.5317392288803	-10.6374360461909	-72.5236172965801	-3.28990122546757	144.773182581556	
1118500000	-2.98948021400666	144.467193781473	-10.6693927071128	-72.3944716498459	-10.66199782529	-72.5073518802185	-3.3004067109601	144.740959460341	
1119000000	-2.99985903625495	144.310914278052	-10.6691825947508	-72.5222555178391	-10.6518903795759	-72.4624279429902	-3.30553001781531	144.700784097546	
1119500000	-3.00847487704074	144.196273353542	-10.6646375606373	-72.5357411054854	-10.6524538008127	-72.5056158346554	-3.32081753428048	144.597957096217	
1120000000	-3.01690150600949	144.147328328822	-10.671659821709	-72.4985148281779	-10.665477974333	-72.5925789039838	-3.32975884432653	144.57899715433	
1120500000	-3.03077787799694	144.05943751995	-10.6779301703698	-72.6101319098885	-10.6630128278973	-72.4495685228597	-3.32988257004761	144.466897346293	
1121000000	-3.04271350503931	143.943174150963	-10.6767222452416	-72.6077207198097	-10.6631015177753	-72.7027448986494	-3.34749749080898	144.458928650746	
1121500000	-3.06570771481624	143.860669715331	-10.6818488190247	-72.6371307116421	-10.6634584447721	-72.6051493421863	-3.3571808632047	144.359440898322	
1122000000	-3.0680292023427	143.707957021555	-10.6789309254319	-72.5637543190249	-10.6681431400178	-72.5807514293852	-3.36147797938722	144.34794534138	
1122500000	-3.07136101215802	143.664317383151	-10.6810362462352	-72.608833959702	-10.6752918596854	-72.5809443416227	-3.36370830304613	144.272758888436	
1123000000	-3.0790910813444	143.617566393028	-10.7002153250655	-72.6126500644754	-10.6796574089429	-72.5437749463383	-3.36850663733501	144.238633605496	
1123500000	-3.09377074293232	143.466778419702	-10.6926214111841	-72.6621612492398	-10.6846769844196	-72.5946178552943	-3.3845393812238	144.163747232774	
1124000000	-3.10838347663112	143.470365530099	-10.6936705687183	-72.5463603871555	-10.7032571815841	-72.5435381010701	-3.3842324257378	144.094692921529	
1124500000	-3.11190643334855	143.297003761869	-10.7115477412368	-72.6159903731889	-10.7047971656584	-72.6944068903315	-3.39456249236271	144.068665667581	
1125000000	-3.13178975803773	143.225436103584	-10.7043025185609	-72.5334253864845	-10.7029610563221	-72.5232339298075	-3.40482384994588	144.023263405166	
1125500000	-3.13355867726138	143.083330827129	-10.7119983157421	-72.6511908823276	-10.7156105639589	-72.682208976041	-3.40153315208476	143.985454926497	
1126000000	-3.14420565893578	143.009188147471	-10.7473711760788	-72.5527334026014	-10.7122047054392	-72.574925775757	-3.42258690024512	143.896104271021	
1126500000	-3.15105166383061	142.932798756708	-10.7159102088345	-72.6176969278677	-10.7318046515302	-72.6021094771393	-3.42718165370481	143.830585533966	
1127000000	-3.16587149609691	142.848948910306	-10.6993205524724	-72.6423328168094	-10.7155797983838	-72.663323819528	-3.43076973911641	143.757918721966	
1127500000	-3.16519487309535	142.753882081803	-10.7407902126846	-72.5085040852121	-10.7326511617944	-72.5651995703897	-3.44105802733004	143.664190345006	
1128000000	-3.18264062747651	142.578109710666	-10.748885631532	-72.6261899005174	-10.7094613320612	-72.5468400100468	-3.44331583928175	143.687773140193	
1128500000	-3.18677290095672	142.493027171838	-10.7404389630255	-72.4817964174443	-10.7317398884045	-72.5363001527511	-3.44961459375358	143.496908962478	
1129000000	-3.18394443845429	142.455608906758	-10.7607475950544	-72.5697918172712	-10.7435093995263	-72.6262738290446	-3.4611985419241	143.520663976413	
1129500000	-3.19179262558612	142.322480864384	-10.7589790478868	-72.6685482056767	-10.7526866805385	-72.6294151197255	-3.4498262510401	143.424610394725	
1130000000	-3.20645834188485	142.247457153206	-10.7641167292883	-72.5386464943813	-10.7438469323994	-72.5750222233476	-3.45849945892413	143.364981186861	
1130500000	-3.21216046138218	142.117280036404	-10.7688470624767	-72.5618983143542	-10.7562982957573	-72.6354443185842	-3.47111589528308	143.279144837185	
1131000000	-3.21854241777411	142.025856329944	-10.7730711062156	-72.5846018749155	-10.7694147083623	-72.6576374676765	-3.47201365470593	143.264912482094	
1131500000	-3.21791068182721	141.861095991715	-10.7777228085424	-72.5423620939951	-10.7614249175559	-72.6093263839316	-3.46683698374061	143.141838508552	
1132000000	-3.23004878140417	141.804153049407	-10.7918658158615	-72.5696305570719	-10.7552921207754	-72.534131248407	-3.48601596096917	143.097145308161	
1132500000	-3.23455605401028	141.704828367819	-10.7656849111635	-72.5154218344386	-10.7881515958355	-72.5230402329555	-3.48173868530851	143.04823167042	
1133000000	-3.23493516645946	141.642980881497	-10.7836669906948	-72.6417827455122	-10.7748082075497	-72.5715377660003	-3.48410344287725	142.981445674091	
1133500000	-3.22680230670855	141.550408841302	-10.7679186420447	-72.3249827950364	-10.7561841223895	-72.5094165651829	-3.48251542432803	142.869375128576	
1134000000	-3.24321429200528	141.435542920478	-10.7945280343489	-72.528566711206	-10.7945132473769	-72.5478374173114	-3.49102266803475	142.78592548915	
1134500000	-3.24315463108069	141.391586500926	-10.7930285820954	-72.5358418979091	-10.7747046123923	-72.4864394873249	-3.49598893376024	142.771910938865	
1135000000	-3.25725750561109	141.214314899556	-10.807779919225	-72.4800812911024	-10.8060722784854	-72.6041365353323	-3.4915488303683	142.681797144511	
1135500000	-3.25942822749288	141.134452984403	-10.7989028804993	-72.376905849246	-10.7989138117424	-72.545598394876	-3.48740399065929	142.722292927379	
1136000000	-3.2525930178688	141.048019582963	-10.8066583820543	-72.4289048917029	-10.8044504900114	-72.4303290958457	-3.48769304158173	142.539286143009	
1136500000	-3.2493790433263	141.025086349372	-10.8091366854534	-72.3080808085896	-10.8030557481338	-72.400714544301	-3.49162753369034	142.549610949495	
1137000000	-3.26631870492855	140.914347939867	-10.8260193563327	-72.3115305636853	-10.8275910160509	-72.4699635936103	-3.50112041553789	142.432651415992	
1137500000	-3.26119461059915	140.774296013092	-10.8285892646863	-72.4437290867812	-10.8108784036491	-72.4948130155373	-3.50875875618544	142.366615718964	
1138000000	-3.25620633994086	140.789825138791	-10.8184650113019	-72.3780155003879	-10.8275252238561	-72.4485839363298	-3.49201945058009	142.313956192612	
1138500000	-3.26220845282516	140.677257406217	-10.8231381404625	-72.2781440487816	-10.8384189005901	-72.4778438929014	-3.5043857322266	142.255589070512	
1139000000	-3.26568907241385	140.503778018402	-10.8193760622077	-72.3943657655578	-10.8296732343575	-72.3111429908211	-3.50189042152249	142.166744090226	
1139500000	-3.26769639345227	140.519635769428	-10.831794979747	-72.3811442177458	-10.8416556526869	-72.3676702349396	-3.50912723123266	142.089437078303	
1140000000	-3.2619640763587	140.37912149502	-10.8409368778818	-72.3148897609523	-10.8212864038211	-72.4489016934118	-3.49676640666393	142.024838659106	
1140500000	-3.26087218920744	140.331109327161	-10.8563648047146	-72.2686780242564	-10.8444821708862	-72.4042717725029	-3.49959463235482	141.992724085937	
1141000000	-3.25603514950889	140.308468612742	-10.8636572261154	-72.3294801328193	-10.8396479910706	-72.3053925906444	-3.50036474260984	141.90599016618	
1141500000	-3.25375497079519	140.152475726519	-10.8593925293622	-72.2179194415113	-10.8543553421611	-72.4133098304028	-3.50175399632954	141.852977083667	
1142000000	-3.24501737477926	140.101416233402	-10.855082884919	-72.2315542372956	-10.8517925685875	-72.1024568442663	-3.50554548101662	141.774422933377	
1142500000	-3.25024945426237	140.059615193172	-10.8492603567276	-72.1624524835673	-10.8558878650014	-72.1882325714637	-3.49585229448213	141.664662076417	
1143000000	-3.24813540586324	140.006244209901	-10.8692663722523	-72.1819353128322	-10.8417036700656	-72.1759050999907	-3.49446964282985	141.668190782043	
1143500000	-3.25757116801896	139.855956826172	-10.8660443006949	-72.2165609258235	-10.8447630605824	-72.1324174250854	-3.50060272611709	141.51504560136	
1144000000	-3.24973816520128	139.915765443825	-10.8627949761296	-72.1359059649603	-10.8671422806029	-72.2575768193659	-3.48128932695995	141.448094386176	
1144500000	-3.24767619980788	139.812178852911	-10.8872737100679	-72.2036067299695	-10.8615794112426	-72.286291244541	-3.49150281531063	141.439637738403	
1145000000	-3.23405004123666	139.823853050183	-10.8695661639636	-71.9569403950359	-10.8704319160402	-72.0937194883748	-3.47991737536339	141.415433326318	
1145500000	-3.21565063662364	139.693108827509	-10.882361546618	-72.0042918830754	-10.8712319334472	-72.1892170637855	-3.47730784156756	141.333073679032	
1146000000	-3.23642681887273	139.709227974574	-10.8783750291637	-72.1374357647183	-10.8736175616428	-72.1817162204884	-3.48984887479866	141.266780995113	
1146500000	-3.21275239197703	139.634790081094	-10.8724329479037	-71.815078481254	-10.8726607900899	-72.0106415864643	-3.46822256179036	141.170363362147	
1147000000	-3.20408589690097	139.60765231801	-10.8577320397252	-71.9546109428741	-10.883710800443	-72.1479646533286	-3.46846540140182	141.129158612373	
1147500000	-3.20562755948974	139.523165982112	-10.8911070075522	-72.0153776451317	-10.8839193372112	-71.9299747620463	-3.47081988467118	141.027442872539	
1148000000	-3.20549137288369	139.506870947972	-10.8915786045756	-72.022149369923	-10.8843366918595	-71.8863356426062	-3.4622498929045	141.047691979986	
1148500000	-3.19313912986869	139.450435036245	-10.8945051416839	-71.9178931328976	-10.8641265481175	-71.8088871600617	-3.46755632784562	140.945869248836	
1149000000	-3.19686925015	139.421880279591	-10.8819936884617	-71.8925730646514	-10.8873335748321	-71.9278927821752	-3.44694985141348	140.869942172444	
1149500000	-3.17795145558733	139.377607951513	-10.8970042609902	-71.9711168340761	-10.8737828666933	-71.868019180105	-3.4488884905204	140.821238126952	
1150000000	-3.17017534592936	139.354808673187	-10.8756341894155	-71.7765079856465	-10.8705774262442	-71.7732066997204	-3.43601370866155	140.758632555198	
1150500000	-3.16588274361178	139.341965199106	-10.9027663954009	-71.8028309235481	-10.883377452093	-71.7698502922725	-3.44024388387792	140.662509718292	
1151000000	-3.1537052108038	139.28664757033	-10.902538341352	-71.7830670321933	-10.8908661866728	-71.8450561217419	-3.43976237800559	140.606261899468	
1151500000	-3.14924403342413	139.286960100604	-10.8976713695533	-71.6526022998657	-10.875130145673	-71.7328921565758	-3.42998002888287	140.623258829534	
1152000000	-3.1377710980581	139.251717489729	-10.8992973522577	-71.6947774556066	-10.8728111552089	-71.7151697395191	-3.42226035232595	140.536581847149	
1152500000	-3.13793166601237	139.240663113986	-10.8801604531702	-71.6500509044586	-10.9014170632492	-71.6740315142702	-3.41307611524055	140.454228430987	
1153000000	-3.12960078312071	139.198269047308	-10.8955616744365	-71.6545838802141	-10.8778125814536	-71.7468797338402	-3.40736183781928	140.446878620217	
1153500000	-3.11685052457076	139.193792514631	-10.8853122128394	-71.4936964223513	-10.8783255757649	-71.6785497207679	-3.40405276800107	140.451491636345	
1154000000	-3.11176077981399	139.200187898858	-10.892438271084	-71.493093297626	-10.8932223648898	-71.6348666050654	-3.40843866327629	140.364627426788	
1154500000	-3.09577543202842	139.135738191159	-10.9072467029089	-71.662348506951	-10.8851631571696	-71.7266948678288	-3.39958081825477	140.235716262182	
1155000000	-3.08970415655071	139.200853418419	-10.8970961330977	-71.4475180925064	-10.8902419210517	-71.5904288144917	-3.38740401985562	140.244472314362	
1155500000	-3.08244009171202	139.130331106568	-10.8819603234214	-71.4433257228198	-10.8749037516675	-71.5614638574918	-3.38972752275903	140.260198639831	
1156000000	-3.06918022315855	139.129448366486	-10.8835087374093	-71.4208015931585	-10.8804835355902	-71.4600616179339	-3.38425159315346	140.137310306662	
1156500000	-3.06634032279017	139.224666907294	-10.8898687438961	-71.5222247845078	-10.8933669131012	-71.4354546300933	-3.3747197543816	140.178779018188	
1157000000	-3.05352563486163	139.152562986096	-10.8930236660915	-71.4595897217835	-10.879151728696	-71.4475586585228	-3.36534346643269	140.073051460656	
1157500000	-3.04218552885864	139.137070384516	-10.8827694534149	-71.383093661459	-10.8876630011062	-71.452612187208	-3.35847149045196	140.021622777628	
1158000000	-3.02428889623548	139.142323744887	-10.8851767651893	-71.2802802213466	-10.8855353198993	-71.4216726035876	-3.35524846057114	139.983998324463	
1158500000	-3.01212333521545	139.170502616756	-10.8818574701727	-71.3625507940369	-10.8735030190656	-71.2879652084267	-3.34235361876544	139.97114598319	
1159000000	-3.00687969001394	139.200744249545	-10.882806956047	-71.2849083612954	-10.8695972044094	-71.2935949084631	-3.33405659477938	139.91537543681	
1159500000	-3.0091066344648	139.221825322468	-10.8929040139463	-71.2898803240034	-10.8839474658341	-71.3389915572228	-3.33434686761716	139.946488532785	
1160000000	-2.98802981823018	139.22235344014	-10.8810664712784	-71.217655099155	-10.8808146844483	-71.2054909899632	-3.32335831225637	139.892607317783	
1160500000	-2.9702676358663	139.28951642852	-10.8846968369362	-71.2392574856703	-10.8674995919096	-71.281854360727	-3.32175826758258	139.866955637612	
1161000000	-2.97526115500406	139.305628374774	-10.8815525663279	-71.1350087226995	-10.8700659222085	-71.1447878607177	-3.3185909133489	139.825446704936	
1161500000	-2.96181372503542	139.317525861999	-10.9024208228814	-71.0273831064803	-10.8730298210449	-71.1187598745578	-3.3063622131327	139.800543836003	
1162000000	-2.94487889232656	139.315637086249	-10.8891120320817	-71.1970902860002	-10.8729704501434	-71.1595778490165	-3.30471811905908	139.771127733452	
1162500000	-2.93279392218574	139.356443884935	-10.8707523367135	-71.0353741344683	-10.8693010035859	-71.1349439259765	-3.29076231238848	139.67571364079	
1163000000	-2.93121068850627	139.463730113928	-10.8726702579616	-71.1691510435242	-10.8650969644301	-70.9557977037344	-3.28475901587548	139.679409166824	
1163500000	-2.92437433479246	139.401003260742	-10.8749890210622	-71.1260082366767	-10.8652856954509	-71.018412584175	-3.28091247787113	139.662350342925	
1164000000	-2.90908761467998	139.479057651301	-10.8701549909532	-70.9850268489648	-10.8520581000616	-70.9938027600243	-3.27985742539424	139.63617317837	
1164500000	-2.90923356467486	139.47430490183	-10.8591010964766	-70.8856103752654	-10.8616510505639	-70.9799063844713	-3.27045921955315	139.652654762618	
1165000000	-2.89655070524746	139.525543897321	-10.8594295350371	-70.8537747937309	-10.8528133065542	-70.8876327286793	-3.25822782513958	139.576779722421	
1165500000	-2.88096292331007	139.572744696514	-10.850827826634	-70.9650701549996	-10.8536019307459	-70.8983224674522	-3.25539288527795	139.570546269342	
1166000000	-2.86920957834909	139.610990497934	-10.873966655979	-70.8173552613017	-10.8653400122102	-70.9396663525092	-3.24725533217892	139.552254334908	
1166500000	-2.86163399728245	139.633372180886	-10.8519410332396	-70.8767662667076	-10.8418369980225	-70.8483780046957	-3.24608077863128	139.505846941066	
1167000000	-2.85359803685781	139.653576714036	-10.8441368555262	-70.9640457596929	-10.8371775742167	-70.9229747533616	-3.22614009898656	139.542933545162	
1167500000	-2.83829622975651	139.750253514153	-10.8480320157642	-70.7545118330268	-10.8353729576157	-70.780355472874	-3.22845394295836	139.490214859315	
1168000000	-2.83185624225842	139.75986596122	-10.8335800824642	-70.8921069121957	-10.8346072719507	-70.7594640845392	-3.22680055461411	139.508781265779	
1168500000	-2.82572143569011	139.821964834428	-10.8568497502874	-70.8022458666267	-10.8267001024992	-70.7986108224801	-3.21764921591409	139.492195432823	
1169000000	-2.8062076851639	139.922674694934	-10.8364607645939	-70.6985915911291	-10.8364499606163	-70.7908937577848	-3.21354152318318	139.514624591646	
1169500000	-2.80361425794272	139.994185010286	-10.8412015696229	-70.8015996516248	-10.8342430249275	-70.6341471410881	-3.20794233597552	139.412597506552	
1170000000	-2.79679066684672	139.986642078343	-10.8284851320081	-70.7035740534314	-10.8245134929171	-70.7077369129292	-3.20541743448528	139.47643144942	
1170500000	-2.78298875954422	140.023610999451	-10.831118999906	-70.6619947402156	-10.8339187205046	-70.7387348727757	-3.19498891689105	139.453383693441	
1171000000	-2.77527579387602	140.096036571296	-10.8282847339248	-70.7354768324505	-10.8082931873233	-70.7564093225554	-3.19815824726972	139.434990147091	
1171500000	-2.7694540340872	140.089854481345	-10.8175663401669	-70.610619185472	-10.8044403416542	-70.6970237525252	-3.18966451721156	139.425512740316	
1172000000	-2.77256126965585	140.191796195042	-10.8136725226551	-70.6798279578508	-10.800717315414	-70.627351851143	-3.19001073808616	139.392423781986	
1172500000	-2.75106869086947	140.248904494615	-10.8180061450708	-70.5739127926044	-10.8102817138239	-70.6933039054057	-3.17973732451428	139.392602564445	
1173000000	-2.75414319029198	140.266170725299	-10.7931014462364	-70.7291726068541	-10.7918195587223	-70.5936675612173	-3.18375769315544	139.412745667412	
1173500000	-2.74128825079377	140.339320021307	-10.7942847096051	-70.6120172721195	-10.7909368102706	-70.6310944555579	-3.17460252346192	139.431012534065	
1174000000	-2.73298952300405	140.369945536913	-10.8043837420059	-70.5215253019698	-10.7928689348103	-70.5653988471347	-3.1650798049572	139.351403959814	
1174500000	-2.71885347579025	140.436138522109	-10.7928895810744	-70.6038255470467	-10.7717126007326	-70.5654998416387	-3.17029651265907	139.40120894411	
1175000000	-2.71890479412731	140.452436742	-10.774341065991	-70.5319413538068	-10.7774815797608	-70.6180685640025	-3.15866803546711	139.323069132104	
1175500000	-2.71054621306289	140.535050373406	-10.7889723132062	-70.5799566951903	-10.7864484225456	-70.5983603934241	-3.16120348891448	139.357837732139	
1176000000	-2.7004606938238	140.608336638971	-10.7776399938854	-70.4934464396667	-10.7772552186697	-70.5557502439455	-3.16569531442297	139.383233982216	
1176500000	-2.69586272769368	140.671807765798	-10.7617493790262	-70.6245836025961	-10.7791632328342	-70.5529105799435	-3.1525532192533	139.374293309938	
1177000000	-2.68981739486508	140.750734927634	-10.756284028876	-70.5184297559727	-10.7664398496187	-70.5106609777499	-3.16508600445307	139.369285455537	
1177500000	-2.69167215660732	140.784814147191	-10.7660294175869	-70.5137675819393	-10.7682138653706	-70.5670031447843	-3.1603019998395	139.295094273955	
1178000000	-2.68763065828812	140.816763159604	-10.7491142308075	-70.5764443668766	-10.758422905517	-70.5222276702282	-3.157886293201	139.388421027616	
1178500000	-2.67897762957781	140.89310458524	-10.7511130890834	-70.5294166157112	-10.7416946926642	-70.4815914879169	-3.15709070494	139.350934463522	
1179000000	-2.67002550249171	140.981321341276	-10.7544758275059	-70.4703230116841	-10.7443647734376	-70.4289327361822	-3.15208427128316	139.386915581771	
1179500000	-2.66843405847611	140.994049655685	-10.7264903069701	-70.4559603583145	-10.749445561738	-70.441895611643	-3.15673167490944	139.357857422877	
1180000000	-2.65612007337338	141.051430628488	-10.7313304949769	-70.4924388542477	-10.7418693886955	-70.4058848016011	-3.14536610406627	139.335743965791	
1180500000	-2.65706869520256	141.083062810524	-10.7254202061927	-70.4999532089052	-10.721531148512	-70.4977139317292	-3.14801673763571	139.379130094329	
1181000000	-2.65775317954047	141.193178464744	-10.723947731302	-70.4828845022715	-10.7276407598325	-70.4772216363534	-3.15186370223111	139.371059161966	
1181500000	-2.64789413944003	141.169396885889	-10.7146925059196	-70.5570611717552	-10.7229477173521	-70.5214337978788	-3.14716642820875	139.338973940034	
1182000000	-2.64968964809041	141.249234162327	-10.7208371255009	-70.4517237823176	-10.712773258761	-70.4794459358319	-3.14800565873296	139.337505509106	
1182500000	-2.64646032540315	141.336395379397	-10.7025099347414	-70.4761338035102	-10.7076783270563	-70.4636841971664	-3.15395643360729	139.365465219864	
1183000000	-2.64743428362033	141.386821598141	-10.6997827881267	-70.431047373794	-10.7065036808173	-70.4673892505324	-3.14289280756732	139.353897935167	
1183500000	-2.6464187285329	141.470045303754	-10.6946721423031	-70.4988620518588	-10.6928370582381	-70.4384234035317	-3.15380729104211	139.350015735327	
1184000000	-2.63986385870821	141.452579698481	-10.6965600032958	-70.4145718938803	-10.6937233040446	-70.4623751136871	-3.15668285558989	139.336187999285	
1184500000	-2.64861168023153	141.48384428092	-10.6838551092301	-70.4328646208788	-10.6848379984743	-70.4660198146082	-3.15781145342239	139.352393598606	
1185000000	-2.64408356260656	141.569921661513	-10.6854340369169	-70.5310461419604	-10.6732057660761	-70.4628198960614	-3.15309379093555	139.350938372942	
1185500000	-2.64776573227002	141.618544359638	-10.677074808005	-70.538066310088	-10.6730775609578	-70.5133224198977	-3.16109985915803	139.297864711607	
1186000000	-2.64889853936308	141.655478836148	-10.6760746703811	-70.5680696348176	-10.6656031170252	-70.4519871589244	-3.16846847787445	139.319327327745	
1186500000	-2.64339431107515	141.71399739402	-10.6624415773091	-70.4767842240986	-10.6554951650999	-70.4734838784163	-3.1688436833449	139.326054359249	
1187000000	-2.64683837329685	141.744143071993	-10.6510017909862	-70.4824603062033	-10.6393187886286	-70.4048174965397	-3.16529672755068	139.336867393538	
1187500000	-2.65124821727016	141.785490651846	-10.654141203538	-70.4873170712467	-10.6482066783962	-70.5047032397369	-3.16928136377528	139.337708767038	
1188000000	-2.65011732168568	141.830445278484	-10.6548663179313	-70.5190627911202	-10.6470100813409	-70.4827370444174	-3.17260759008468	139.293467265646	
1188500000	-2.64547810166404	141.847609867865	-10.6402457442012	-70.5413743857183	-10.6414419814323	-70.4812759607505	-3.17453595184226	139.328910375631	
1189000000	-2.6514525641191	141.917775630128	-10.6396465308412	-70.5015984776317	-10.6370137478606	-70.5253359012346	-3.18017699988846	139.314719778355	
1189500000	-2.65598020699542	141.959235488065	-10.6369287762523	-70.4926720691155	-10.6270939548791	-70.4928302975428	-3.18187263572161	139.338338492971	
1190000000	-2.66330563863489	141.987594412179	-10.615997937507	-70.5771433219281	-10.6280352712105	-70.54033664272	-3.18096976458016	139.307238265761	
1190500000	-2.66726479845339	141.988986075945	-10.6312249842855	-70.5806991028951	-10.623329664287	-70.5478561039317	-3.19653961024997	139.24459257422	
1191000000	-2.67398548558031	142.008839215296	-10.6076095288352	-70.6451773137809	-10.6148833109906	-70.5662119535486	-3.20578075763748	139.255424788531	
1191500000	-2.67616452628144	142.051258677007	-10.6012913431948	-70.6207248068676	-10.6084303060812	-70.5461153985831	-3.20559739566464	139.308193298876	
1192000000	-2.67802402117526	142.055572576357	-10.6112312020397	-70.6107671637842	-10.609731354636	-70.6156379492449	-3.2119768191124	139.265141446147	
1192500000	-2.68889092569981	142.057671169192	-10.5919106094864	-70.6515665909883	-10.5963362458069	-70.6098518087892	-3.21544017326641	139.305876743766	
1193000000	-2.69060267484861	142.120291939646	-10.5964228752935	-70.6500441552061	-10.5808046778773	-70.6156979627496	-3.22709050018928	139.255932763565	
1193500000	-2.6943313421214	142.149518522493	-10.5782426631056	-70.705047761138	-10.58472385458	-70.6297351796	-3.23570000847501	139.214609035939	
1194000000	-2.70350080607193	142.107969375862	-10.5763434147857	-70.6327622604851	-10.5759901504392	-70.6445721612128	-3.23489234036848	139.227090496651	
1194500000	-2.71041213628722	142.206633595744	-10.5790142128869	-70.7633579390894	-10.58313118111	-70.6539932292646	-3.24573781547615	139.220047727576	
1195000000	-2.72180594167638	142.133747005068	-10.5796097849915	-70.7253102423591	-10.5820234823089	-70.6429620143624	-3.25062711308014	139.183014056789	
1195500000	-2.72700739133636	142.207075028351	-10.5765635330583	-70.7106435818982	-10.5762868148216	-70.5989196213834	-3.25218102873435	139.17312956919	
1196000000	-2.73807887069293	142.175741572193	-10.548840165577	-70.6217796433553	-10.5668936576624	-70.6228404973491	-3.26864068727554	139.151269513738	
1196500000	-2.73975775210253	142.157266014626	-10.5602305084146	-70.7679514390992	-10.5688197598473	-70.7035403181765	-3.27187586719476	139.181875292747	
1197000000	-2.75272259060752	142.195179053156	-10.5492375417735	-70.774630614966	-10.5472336729339	-70.7899567038398	-3.28950802282621	139.082864168196	
1197500000	-2.75877312402669	142.164621553241	-10.5562719322195	-70.8896363238479	-10.5539864947716	-70.723253331879	-3.28968291852002	139.114162087114	
1198000000	-2.77556965570046	142.187312954065	-10.5532414480525	-70.7827046513175	-10.5343781149308	-70.7817005789953	-3.28892216469206	139.136370329884	
1198500000	-2.78455460314004	142.134792194582	-10.5421624528983	-70.8385601533931	-10.5474659555312	-70.7933263898715	-3.31537403339383	139.024457260035	
1199000000	-2.79222588952665	142.169888622467	-10.5405370280026	-70.7961453263113	-10.5352761128311	-70.7701103887924	-3.31364695045181	139.055101701147	
1199500000	-2.80538465856001	142.089738431902	-10.5388201405044	-70.9236704742197	-10.5242676276308	-70.9253209352378	-3.32166882619199	139.045143352733	
1200000000	-2.81610593275094	142.136883943814	-10.5230515494639	-70.8978380352062	-10.5279263544837	-70.8248500145109	-3.33557621358224	139.003581011481	
1200500000	-2.8191963634537	142.011646435777	-10.5294331969742	-71.0859734925462	-10.5352094607369	-70.8378184591316	-3.34036002281175	138.989866939885	
1201000000	-2.84304300239403	142.04750515207	-10.5280786788297	-71.0079074682893	-10.5170810891735	-70.8960508258672	-3.35191161244909	138.974451343408	
1201500000	-2.842822473742	142.037510842903	-10.5132029556093	-70.9717781394396	-10.524513146869	-70.9104324272693	-3.36135396333558	138.928812563716	
1202000000	-2.86318032444454	141.98450618141	-10.524583214542	-71.0762362704412	-10.5092249061008	-70.8952197812694	-3.36797797667736	138.91615357059	
1202500000	-2.87216384861741	141.994925048926	-10.4979322061446	-71.061538342813	-10.5114493452245	-70.9681198198307	-3.36841170516855	138.932142607849	
1203000000	-2.88971910935399	141.894493302567	-10.5206281478092	-71.0296103125755	-10.5031012086158	-70.9629234716121	-3.38674515248987	138.889129791776	
1203500000	-2.90386020066869	141.916668207187	-10.5039752692558	-71.0805147146965	-10.5139385763193	-71.0359419900975	-3.39470239317886	138.780799496919	
1204000000	-2.91169556965321	141.861607969398	-10.5071439687924	-71.1133039320624	-10.4907202393217	-71.0765984936011	-3.41689292955565	138.784259381462	
1204500000	-2.93068828665213	141.770107903785	-10.4927361538051	-71.0993992786494	-10.496141761438	-70.9211792916286	-3.41129431612123	138.760937031844	
1205000000	-2.94809290882003	141.764100527605	-10.4983396398082	-71.1619528378358	-10.4772468583507	-71.094797990916	-3.4164313508396	138.696013919827	
1205500000	-2.95680630519117	141.704622547729	-10.5074171362944	-71.1664626281762	-10.4976266767152	-71.0749187442317	-3.43858633027436	138.66524532421	
1206000000	-2.96958984868878	141.620256805883	-10.4870900216935	-71.0965411617432	-10.4813124142022	-71.1693684895674	-3.44937385640865	138.604424343226	
1206500000	-2.98586414593092	141.577484292516	-10.4888894063523	-71.3146667378362	-10.4967579308834	-71.1164889244291	-3.46414351602554	138.623212114234	
1207000000	-2.99552447919377	141.507837252638	-10.4903113587586	-71.3483677179362	-10.478274291494	-71.1338609995752	-3.47103517796223	138.655046630191	
1207500000	-3.02140181694511	141.464010541105	-10.4820860293475	-71.2988899369902	-10.4750651278295	-71.1259673602235	-3.47765261295197	138.493338028965	
1208000000	-3.03092658353342	141.389095054525	-10.499889337607	-71.2949747137404	-10.4754931141167	-71.1566277434662	-3.49447968388919	138.50123772753	
1208500000	-3.0428183436491	141.336034661754	-10.4934651365206	-71.2946989460906	-10.4744199835296	-71.2847046087002	-3.50106405998883	138.447774394771	
1209000000	-3.05763276805609	141.266435600971	-10.4822449137742	-71.3336574163732	-10.4625110462207	-71.3179855071883	-3.50404548078412	138.330343171324	
1209500000	-3.06490795605524	141.155607300919	-10.4628059885662	-71.3118717428649	-10.4578090578545	-71.2327998432894	-3.51528344048105	138.368079865589	
1210000000	-3.08772562665175	141.06866007451	-10.4791526917983	-71.323079621398	-10.4678646175309	-71.3378922021967	-3.53537316744545	138.28458674294	
1210500000	-3.10061464898307	140.983411222112	-10.4751636896627	-71.3355895239279	-10.4620021832067	-71.4130418223129	-3.53857330139011	138.258603708624	
1211000000	-3.11241960238538	140.850653678582	-10.4696483028674	-71.3775636653451	-10.4614596253541	-71.3359404843654	-3.54369571970936	138.206107776428	
1211500000	-3.13374486997901	140.87257781363	-10.4728576450367	-71.4626427129201	-10.466807665325	-71.327708068814	-3.55808033265976	138.221661416716	
1212000000	-3.15242389159449	140.693658755802	-10.460444785495	-71.4533379237681	-10.452622076125	-71.5054357838815	-3.56736060480235	138.127901025879	
1212500000	-3.15678511030987	140.638703491952	-10.4692736234299	-71.5598430489946	-10.467023669584	-71.3727826897832	-3.57733901742684	138.014299129023	
1213000000	-3.18078998411164	140.546834803858	-10.4496253867834	-71.6305643720884	-10.4580249296085	-71.4314534168948	-3.59380242106897	137.977803440477	
1213500000	-3.1934242190017	140.433196120599	-10.4680546467483	-71.4718684068022	-10.4512915935491	-71.5706390193963	-3.60306163623145	137.905674447242	
1214000000	-3.20912040903461	140.355611386118	-10.4759371758984	-71.5967938936073	-10.4626492560318	-71.470882900941	-3.61302793410163	137.85463232629	
1214500000	-3.21743707360341	140.238471007952	-10.4660454716686	-71.5316913841927	-10.4492280522102	-71.5405391217891	-3.62930629614758	137.842789521434	
1215000000	-3.23727708194267	140.129081915498	-10.4568725023691	-71.6600858769922	-10.4533612177112	-71.5526027416254	-3.63358872330589	137.80768857118	
1215500000	-3.25898474806397	140.058606028476	-10.4686954633171	-71.6223079693666	-10.4661909029601	-71.4569676347436	-3.63907137856715	137.748695201492	
1216000000	-3.26792770231934	139.90507303593	-10.4742724540706	-71.6604952921642	-10.4595865270228	-71.4778554289475	-3.65961427249586	137.639266453678	
1216500000	-3.28505126600944	139.75447063377	-10.4717268652151	-71.7713641413522	-10.4650641841196	-71.5055003076615	-3.6622829480024	137.559941109151	
1217000000	-3.29985346817453	139.72532543099	-10.4677112285749	-71.704718050382	-10.4484496979657	-71.6016117130878	-3.67240417253464	137.490375949459	
1217500000	-3.31012037938079	139.594630851784	-10.4435216884077	-71.7226350378103	-10.4418733864199	-71.5544673479256	-3.68426113076333	137.411883497194	
1218000000	-3.32109027840981	139.436757176701	-10.4510289906265	-71.738774311141	-10.4543667848598	-71.6989380798414	-3.68922744240609	137.35744828362	
1218500000	-3.35067328061662	139.263095349826	-10.4555688558014	-71.6888867589548	-10.4585776366215	-71.6809734331338	-3.69717199637574	137.355722574801	
1219000000	-3.35762823729082	139.220566803034	-10.4723609790097	-71.8079616984472	-10.448987521956	-71.7968743554835	-3.70949965573968	137.267423853519	
1219500000	-3.38030056052892	139.095606647367	-10.4428876442836	-71.7631028682866	-10.4467631575427	-71.7360758815968	-3.72009405918371	137.11321999488	
1220000000	-3.38160096098116	138.940862293108	-10.4595651435522	-71.7900643822606	-10.4602447767108	-71.6935952286372	-3.72727066912103	137.183879323305	
1220500000	-3.39569658823905	138.742003832225	-10.4666938886086	-71.9241104565926	-10.4425667706807	-71.7145495488124	-3.73602602928832	137.053005469385	
1221000000	-3.409395213789	138.686646755091	-10.4592476047375	-71.7782776407076	-10.4439948528788	-71.6805307567788	-3.73744527810977	136.933301176337	
1221500000	-3.42619390134952	138.544064418771	-10.458369865668	-71.8108147634298	-10.4665649357818	-71.7761200641187	-3.74820871932665	136.945468757172	
1222000000	-3.44965520707573	138.397292545436	-10.4814797294394	-72.0003530887188	-10.4480982829358	-71.8948587498909	-3.75079434369727	136.910685354545	
1222500000	-3.44599158434848	138.222444438832	-10.4718376186243	-71.9060845362859	-10.458449233074	-71.8511856592429	-3.77243579779165	136.776300356103	
1223000000	-3.46885210678607	138.068651196906	-10.4617502214339	-72.0489981561827	-10.4695950602298	-71.81465025711	-3.76974408271696	136.702793297912	
1223500000	-3.48601050826753	137.948989026155	-10.4671163171388	-72.0283598408891	-10.4374421676773	-71.7935063268661	-3.77299318228927	136.683518639393	
1224000000	-3.49736930970314	137.796851029276	-10.4674404443683	-71.8075253901497	-10.4654848982236	-71.9074100562304	-3.78803317458235	136.564052561797	
1224500000	-3.49265988504422	137.701955370992	-10.4784659988315	-71.9597463061364	-10.4572863710607	-71.9108294541564	-3.79888379747231	136.538372279699	
1225000000	-3.51554871446961	137.498607311156	-10.4684109993274	-71.8472342170982	-10.4627859563551	-71.7726669385371	-3.79060003925491	136.408956283501	
1225500000	-3.52924495603037	137.41748638155	-10.4801651502182	-72.0398267386654	-10.4608431065975	-71.9935272482715	-3.80935583763401	136.36189162053	
1226000000	-3.52749363160181	137.173858493372	-10.4699402305765	-72.0125907201871	-10.4639613145338	-71.950340541064	-3.80061525015692	136.292330091243	
1226500000	-3.55386455124322	137.071826903084	-10.4832225448387	-72.1316101225447	-10.4482443596766	-72.0045362245271	-3.81569030439371	136.142689795554	
1227000000	-3.55609784612447	136.867317160594	-10.4708755681187	-72.1055228042731	-10.4625149580424	-71.9471692828285	-3.82608797729671	136.146516297393	
1227500000	-3.56505305535829	136.777763060786	-10.4630328836276	-72.0621579174511	-10.4391543247673	-71.9890352677889	-3.81891654242094	136.037453395838	
1228000000	-3.57503365272339	136.580350630996	-10.4714587887434	-72.0859867168747	-10.4606102728002	-71.9471336521046	-3.82581248947075	135.92403345004	
1228500000	-3.5858139906744	136.432058545471	-10.4829829321865	-72.0449721974216	-10.4664870828757	-71.8695905073422	-3.83385681360171	135.862737307125	
1229000000	-3.59591980481644	136.315301860857	-10.4621126273796	-72.0119579095492	-10.4760208171338	-71.9498496792184	-3.83815444242341	135.806836662059	
1229500000	-3.60832186270378	136.0917498366	-10.4718693457674	-72.0874505053904	-10.4850395126983	-71.9339575773172	-3.84482111566414	135.784678907325	
1230000000	-3.6130423929413	135.940462880515	-10.4906137175315	-72.0392380501862	-10.4868412347393	-72.0807910074982	-3.84542363704342	135.64594934107	
1230500000	-3.60761989306334	135.847093748265	-10.4899952042619	-72.1021828945515	-10.4656243884976	-72.065115703426	-3.85368655618974	135.556159206119	
1231000000	-3.62655058767242	135.725741016383	-10.4767641020925	-71.9907270253412	-10.4775472132707	-71.9088866132213	-3.84690029582286	135.508344160621	
1231500000	-3.63288949268555	135.522601415188	-10.4988926971208	-72.0363669809066	-10.4817555224238	-71.7937115848746	-3.85726093370562	135.413323741526	
1232000000	-3.63784788820031	135.369538509771	-10.4828898459545	-72.1101511086515	-10.4886132977157	-72.0476556614679	-3.86031244247468	135.312956339138	
1232500000	-3.64200627201362	135.197803386813	-10.5065241808423	-72.087015734975	-10.5043484215411	-71.9943633705092	-3.85967706222044	135.196350878102	
1233000000	-3.64848958438319	135.044792751992	-10.489279982151	-72.1841838458199	-10.4894562991653	-71.9881470384964	-3.85720360967426	135.213220380506	
1233500000	-3.65147812931677	134.959472906154	-10.5016877229937	-71.9744232971129	-10.5081802273498	-71.984565051271	-3.86123247726923	135.153102042534	
1234000000	-3.65532770871167	134.755111646	-10.4898783852761	-72.1032810993754	-10.4956558304388	-72.0205879276016	-3.87156568317566	135.058149736058	
1234500000	-3.66057841296976	134.607978275132	-10.4845475422786	-72.1426538020595	-10.4890362327597	-72.05104533726	-3.87172476301423	134.882329002721	
1235000000	-3.66464200981777	134.495077548058	-10.5097522003388	-72.199734473518	-10.5070215913775	-72.0408541061963	-3.8629510631756	134.948481014827	
1235500000	-3.67429289118132	134.352429906835	-10.5193438358832	-72.0849797746802	-10.5043399760599	-72.0111164364958	-3.87128430590232	134.798226526278	
1236000000	-3.68078873483338	134.201999500878	-10.5124051858952	-72.1228858966043	-10.5126560379876	-71.9927334115369	-3.86808457602711	134.724096948671	
1236500000	-3.66420966963393	134.060167201387	-10.5136091340948	-72.1190092573409	-10.4873088337283	-71.9780384061518	-3.86614499817242	134.608213316513	
1237000000	-3.67203469699161	133.937103550601	-10.5066140716516	-72.1293829682586	-10.5171264012898	-72.0785956894788	-3.87485656477664	134.606306494378	
1237500000	-3.67235010670263	133.832031466792	-10.5163374450305	-72.1230140585865	-10.5213428064275	-72.0716824993086	-3.87435417111175	134.434813349195	
1238000000	-3.67086346022264	133.636325424053	-10.5203171575923	-72.0882766763963	-10.509385630268	-72.017484681063	-3.87699255689094	134.452415758983	
1238500000	-3.67954053165323	133.450016796158	-10.5045412091325	-72.0792122499729	-10.5125218602614	-72.0375802762627	-3.87702598673482	134.298829062365	
1239000000	-3.67044104715758	133.388469236223	-10.5110627114258	-72.0314399398589	-10.5107381547169	-71.9948202416858	-3.8728041210908	134.271430845609	
1239500000	-3.67497918866914	133.222992742574	-10.5278694525645	-72.0793081358432	-10.522316335146	-72.1236840764493	-3.88082325418753	134.173404227955	
1240000000	-3.68041376322503	133.075662868887	-10.5324094382429	-71.9251197276492	-10.5109484681982	-72.1335675327738	-3.87019520604402	134.148981083789	
1240500000	-3.6581197428187	132.993946600703	-10.5164438466834	-72.0053592193132	-10.509039510373	-72.0161777698689	-3.87486041434656	134.11136836121	
1241000000	-3.66653878886212	132.839692800058	-10.5262791170707	-71.9938047621045	-10.5037524475045	-71.9312490641166	-3.85037419334075	134.045266126514	
1241500000	-3.65935688491633	132.736605222366	-10.5380644258744	-72.0683627321951	-10.5226885821775	-72.1682727113398	-3.855141657296	133.899860349625	
1242000000	-3.65531730389574	132.61649429392	-10.5281966960825	-71.966893785576	-10.5168268235191	-72.0782160689275	-3.86062149969802	133.861031922607	
1242500000	-3.6467047472248	132.534381910392	-10.530541971823	-71.9363435235726	-10.5179827974356	-71.9510416613145	-3.849116545178	133.730511736958	
1243000000	-3.64704237275222	132.419114866311	-10.5213885918238	-71.9465996532933	-10.5291709516923	-72.0709023153698	-3.84698069318494	133.771451429346	
1243500000	-3.64943109011129	132.264228661787	-10.5339375129813	-71.9002706478051	-10.5202171583961	-72.0235654853313	-3.85620797757298	133.642312400182	
1244000000	-3.62733868122847	132.181958146667	-10.537662249979	-71.9195252693602	-10.5159013265825	-72.0932264139432	-3.84233482130883	133.529203132603	
1244500000	-3.62693058133794	132.103734075112	-10.5335561230638	-71.9347946602719	-10.5224020173485	-71.9898586544534	-3.84474188324163	133.480108182106	
1245000000	-3.63321589317834	132.018333907234	-10.5372644207806	-71.8516478103297	-10.5366004069477	-71.9093582887509	-3.84080017825547	133.499876126268	
1245500000	-3.62022260496611	131.949683042031	-10.5161686690835	-71.8106511990686	-10.5272896636884	-71.9191592724594	-3.84340753099474	133.421666196685	
1246000000	-3.61821836886756	131.800649430486	-10.5227511551691	-71.9020874123912	-10.5188561116669	-71.9083996956871	-3.83030673158079	133.307434692237	
1246500000	-3.61498409874329	131.753423637374	-10.5320942292861	-71.8378503486151	-10.5251277477316	-71.8512008467864	-3.83231236792787	133.335684268644	
1247000000	-3.59904383403912	131.590904067112	-10.5258050817174	-71.7937411697294	-10.53951296163	-71.9490618649888	-3.82887655023557	133.19206183472	
1247500000	-3.59413676195454	131.551051198641	-10.5279854801207	-71.8780379918792	-10.5339641345818	-71.8402878561361	-3.82121562236232	133.136754622255	
1248000000	-3.58173390508208	131.483913059484	-10.5241239172336	-71.796789141968	-10.534087089087	-71.7107998646354	-3.8210275598062	133.09355071707	
1248500000	-3.5739696709289	131.455548741206	-10.5571907912868	-71.947707642133	-10.5320965746637	-71.8004306266549	-3.81476084956039	133.058001865046	
1249000000	-3.56976008512458	131.387040034016	-10.5296507848777	-71.8307044756246	-10.5414800811558	-71.7115331821369	-3.80287636664353	132.981978690723	
1249500000	-3.55788633560747	131.293829869598	-10.53321398956	-71.7082421166383	-10.5395077774351	-71.7478874511438	-3.80459760968965	132.962895989112	
1250000000	-3.54606960284198	131.200702663229	-10.54033753843	-71.6788867692424	-10.5347306667275	-71.7357825958381	-3.80846969324363	132.952923980301	
1250500000	-3.54066520549689	131.137666250144	-10.5571573947125	-71.6280098177929	-10.5243487540178	-71.6467243043472	-3.79666323835852	132.822784583207	
1251000000	-3.5404667774486	131.17218387464	-10.5650699328372	-71.6772774704228	-10.5304229219473	-71.6463384501967	-3.78062640517926	132.7910327509	
1251500000	-3.52458384512183	131.120230899048	-10.5317617832507	-71.6059841650534	-10.5460747172393	-71.7134658439489	-3.78179802693403	132.818910241219	
1252000000	-3.50284056407256	130.968719564756	-10.5372215271325	-71.6735118787034	-10.5436325481129	-71.6164640626645	-3.77621959405793	132.73658365875	
1252500000	-3.49659743117572	130.950896449323	-10.549255574814	-71.7416529839225	-10.5220754272408	-71.5989052458926	-3.76883373032793	132.688239275041	
1253000000	-3.49011669812493	130.949031726051	-10.5572090259881	-71.4489012200776	-10.5350776897556	-71.4681317264496	-3.76267977014423	132.700758098601	
1253500000	-3.47125735240518	130.952702477632	-10.5447665432341	-71.5403534531784	-10.5376052746771	-71.5139716179541	-3.75659995181644	132.594249723118	
1254000000	-3.45943502749304	130.890086831592	-10.5427827328531	-71.5182437337261	-10.5254704170376	-71.4836022227819	-3.74379017558886	132.539804882933	
1254500000	-3.4544514658979	130.833982838881	-10.5426141869073	-71.4495369379699	-10.531191960078	-71.5053747901026	-3.75403609878677	132.540558460882	
1255000000	-3.43893975407223	130.918406862342	-10.5358943591488	-71.5303966033975	-10.5399546727128	-71.4931376614163	-3.74835635803009	132.531483754933	
1255500000	-3.42171896224879	130.852500172709	-10.5600753860204	-71.3828066624116	-10.5555649654805	-71.4588560764879	-3.7469813447479	132.545426039596	
1256000000	-3.42373090407382	130.838148711612	-10.5522092354151	-71.3740061799604	-10.5372277902424	-71.4720172817764	-3.72860934166331	132.401600784038	
1256500000	-3.39964298086069	130.803497947599	-10.5306553604956	-71.431139004466	-10.5333552262211	-71.436050511217	-3.71993746731978	132.416442781716	
1257000000	-3.40201627254173	130.797052596174	-10.5393076544883	-71.3465987999953	-10.5381537680914	-71.3053444087172	-3.71305266388427	132.36606631182	
1257500000	-3.38529014920492	130.811542598248	-10.5479447988813	-71.3246189875023	-10.5345333558954	-71.3279198653681	-3.71767630326059	132.326288217057	
1258000000	-3.37082437851259	130.76327728479	-10.5411866040726	-71.2878625302999	-10.5275229539862	-71.3448954791708	-3.72429895424365	132.317154040339	
1258500000	-3.36767534711288	130.818851831864	-10.5372012406868	-71.3117539804988	-10.5303981124544	-71.3182363015473	-3.69794791615749	132.350628508636	
1259000000	-3.34582336554303	130.756985715358	-10.536660989603	-71.2438805427594	-10.5132283153196	-71.2523612065843	-3.69907066474629	132.319347257571	
1259500000	-3.33899929823469	130.852852843648	-10.5343657441385	-71.0974349358983	-10.5318343769075	-71.2396930287305	-3.69669560554896	132.286332809198	
1260000000	-3.32525261337122	130.876203318861	-10.5308152602817	-71.2066032716628	-10.5423643203142	-71.1706035249944	-3.69310281158722	132.28044405899	
1260500000	-3.31991956594499	130.816921585328	-10.5243777194516	-71.2417441512796	-10.5243827117933	-71.2121818640153	-3.68140513265185	132.208272720509	
1261000000	-3.31003655546766	130.923833098026	-10.5209779879226	-71.109189765321	-10.5392555740788	-71.0774749264312	-3.67464135171356	132.217251540489	
1261500000	-3.29440756603904	130.943381177474	-10.5294722767919	-71.0295199890169	-10.524873769016	-71.109075928486	-3.67686245115403	132.206686619087	
1262000000	-3.27521559716906	130.949821435642	-10.5237238986914	-71.0300009032534	-10.5273688031011	-71.0771479338296	-3.6659848571578	132.142121885283	
1262500000	-3.28101059010816	130.964614272511	-10.5357156011688	-71.0277134896799	-10.519662377626	-71.0719737774664	-3.65203324617426	132.203598778806	
1263000000	-3.2576999681553	130.960800850206	-10.5106613912662	-71.0310089892208	-10.5210974399741	-70.9703672215409	-3.6495467628588	132.1163153617	
1263500000	-3.24390989140681	131.099001248517	-10.5276009441649	-70.9270184442875	-10.5234490888382	-70.9934720538925	-3.6535271854878	132.172840456645	
1264000000	-3.2290133851415	131.089376472281	-10.5144212642751	-70.9662928728977	-10.5115952346051	-70.9911586603278	-3.64739451021885	132.100872724293	
1264500000	-3.22211031495567	131.090125666328	-10.5135816285694	-70.8932399092595	-10.5141798516185	-70.9534438164839	-3.6398108230141	132.083422842396	
1265000000	-3.20330169327962	131.184379766795	-10.5159765080081	-70.9770749871729	-10.5152497711197	-70.8616719172244	-3.64346300347689	132.089564666564	
1265500000	-3.19890771694307	131.266358367806	-10.5032376259169	-70.8218696755148	-10.4953503381678	-70.8263672303901	-3.62865447726608	132.074261134878	
1266000000	-3.1848647232781	131.233884733666	-10.5009966968943	-70.7740121824353	-10.5251035871383	-70.7829047666777	-3.6306728425117	132.097404420558	
1266500000	-3.17185613022291	131.402673085465	-10.4968821842774	-70.7352924820805	-10.4955731910946	-70.783577613708	-3.63246063364218	132.1063780275	
1267000000	-3.15763437721143	131.395653581281	-10.4988638805472	-70.7922521562428	-10.4936719174999	-70.7537268002323	-3.62923030554516	132.115871176238	
1267500000	-3.15892900000984	131.424148876872	-10.4859750032156	-70.7576624618954	-10.5101692500445	-70.72313022407	-3.62511984847781	132.07248057364	
1268000000	-3.14176523778749	131.504419741984	-10.4954850163487	-70.7146082886272	-10.4899021807279	-70.7169908570032	-3.6280327502351	132.048743806597	
1268500000	-3.12576654580867	131.612087728373	-10.4949678312092	-70.6051006897532	-10.4970784173249	-70.6997786780456	-3.61362056064608	132.035592301433	
1269000000	-3.12238714199971	131.648393814116	-10.4802502916281	-70.5827037467207	-10.4776311551006	-70.7048846501511	-3.60752964688947	132.039376823836	
1269500000	-3.11010314683962	131.76763239403	-10.4914852528052	-70.5827217922477	-10.4923229084507	-70.5874694444434	-3.61289489032305	132.050495307196	
1270000000	-3.09504756984488	131.830387688062	-10.4781930338641	-70.623650868813	-10.4813305789703	-70.5557681743443	-3.60962512336975	132.09486456282	
1270500000	-3.08909946105611	131.88620867919	-10.46626330862	-70.5535760867597	-10.4667645794904	-70.5452201275215	-3.59960691230427	132.032009707353	
1271000000	-3.07774441386911	131.939394059122	-10.477301195297	-70.5103929371555	-10.4757826609991	-70.5618422154546	-3.59725966393743	132.072262421333	
1271500000	-3.07244145879795	132.04568216295	-10.4679230138875	-70.467683936238	-10.4669036258092	-70.5203929222679	-3.59933060454457	131.996325499401	
1272000000	-3.06559115334862	132.113164375027	-10.4607568960658	-70.5016793375121	-10.4765344624509	-70.5204388938769	-3.60070599742404	132.053103142034	
1272500000	-3.05323051978746	132.160147059367	-10.4659217334506	-70.4340102991859	-10.4509155255998	-70.4420409671926	-3.59541190417686	132.097648238912	
1273000000	-3.04985491966277	132.273606431529	-10.4560078702507	-70.4436894128527	-10.4584532334541	-70.3777787564701	-3.59402437030823	132.058328267712	
1273500000	-3.03555540918543	132.390953915051	-10.4646225634476	-70.3816971771427	-10.446992963865	-70.3480640479291	-3.59861268222767	132.086821853223	
1274000000	-3.03572926472244	132.492349947247	-10.4467985119044	-70.3052377653286	-10.4454182819931	-70.3233831974182	-3.59171893315013	132.088131160041	
1274500000	-3.02471227674809	132.562066448914	-10.4558536633569	-70.3688714762445	-10.4419576070299	-70.3459346259365	-3.59657206652374	132.060693610881	
1275000000	-3.02494954257793	132.598904583773	-10.4467753159332	-70.3106611925494	-10.4391048490274	-70.3374490977997	-3.59469068486221	132.093858491783	
1275500000	-3.01552828603454	132.746838267655	-10.4412332575313	-70.284369007102	-10.4352830777256	-70.3065476156761	-3.59922605731965	132.114663097218	
1276000000	-3.0041507353761	132.819641925817	-10.4273019491006	-70.2321205592573	-10.4256466636929	-70.3090246597999	-3.59649328805505	132.07356905291	
1276500000	-2.99538055796536	132.903939712832	-10.4175850225992	-70.2011729769856	-10.4232002301943	-70.1787604204888	-3.59624876428319	132.094617721818	
1277000000	-2.99073685548274	133.019239503409	-10.4260578284037	-70.2233405244205	-10.4109370615933	-70.185401988906	-3.59032162747571	132.109324495023	
1277500000	-2.99152090572661	133.118046587525	-10.4208696320905	-70.2073401478522	-10.4145294289721	-70.2007291288848	-3.60106978035962	132.084687696885	
1278000000	-2.98769393637421	133.181362814042	-10.4009600681243	-70.2179459645887	-10.3976456236433	-70.2303027147361	-3.59301771393502	132.074271595624	
1278500000	-2.97663819853471	133.30796036151	-10.3953044886198	-70.1560781407425	-10.3886262520102	-70.0940707883991	-3.59973707050224	132.110221452457	
1279000000	-2.97295817171855	133.31821787851	-10.3946084674402	-70.1265140134657	-10.3976302643149	-70.1230069408771	-3.6053007903549	132.050803587398	
1279500000	-2.97098670948401	133.518305846896	-10.4006021656074	-70.166799347737	-10.3934491478845	-70.1644615569978	-3.60108470864636	132.129536440224	
1280000000	-2.97000230134926	133.567190942767	-10.3921916907405	-70.0865013531752	-10.3864910542727	-70.111123022511	-3.61720710634581	132.059648626202	
1280500000	-2.95932195159517	133.750156583771	-10.3889274584385	-70.0596373133403	-10.374363041758	-70.1384050679097	-3.60737559612567	132.074328134385	
1281000000	-2.95970185551298	133.857124014476	-10.3817903300787	-70.0887924828053	-10.3578200573223	-70.1358361431214	-3.6112063169527	132.110771661738	
1281500000	-2.96325288580514	133.875655318217	-10.3703832864669	-70.0449453018201	-10.3647805573326	-70.0342163790536	-3.61787496893768	132.094598188253	
1282000000	-2.96327424718471	133.944884139774	-10.3579151784118	-70.0833419109622	-10.3657367506312	-69.9975980081125	-3.62073378674582	132.072631251764	
1282500000	-2.95473213217525	134.00247206984	-10.346435414267	-70.0425165627098	-10.3588296457145	-69.9895177899166	-3.63610503586301	132.141504246994	
1283000000	-2.95854727363557	134.176764008685	-10.3483194644657	-70.0116151027438	-10.3363432285221	-69.9563351992444	-3.62852989715936	132.021860476451	
1283500000	-2.94347814918885	134.257185456656	-10.345463023325	-69.9863369322647	-10.347902372798	-69.9073228390134	-3.63485028199688	132.151824980161	
1284000000	-2.95285492484843	134.30410074551	-10.3250942038507	-69.9666420693071	-10.3334338313475	-69.918060520587	-3.64263095856593	132.079298783245	
1284500000	-2.94295221234594	134.4575022086	-10.3306195912945	-69.8906762279036	-10.3418274979587	-70.0003292687515	-3.64250269543183	132.133322311431	
1285000000	-2.94761201462504	134.52197716731	-10.322086594654	-69.873117285328	-10.313683826832	-69.9274800356955	-3.64386164831343	132.037783016015	
1285500000	-2.94623306467062	134.629434784088	-10.3199367503098	-69.9030976752136	-10.3195409325163	-69.865161505146	-3.65424181579922	132.106258736439	
1286000000	-2.95499237139325	134.679987195695	-10.3065879194685	-69.9302467222806	-10.3088268791015	-69.9598233450393	-3.6567637249058	132.007822020712	
1286500000	-2.96417905601049	134.778334798688	-10.289152710498	-69.8878321964299	-10.2880079264046	-69.8331180042284	-3.66828791940649	132.074899332983	
1287000000	-2.94990608335698	134.919072162988	-10.293510340069	-69.7614399392765	-10.2961161301176	-69.8065090589707	-3.66507030909427	132.108683152991	
1287500000	-2.95054699177134	134.965834559418	-10.2943412854265	-69.8509152281209	-10.2861557306167	-69.7518416703629	-3.67655280834281	132.112229818744	
1288000000	-2.96763962747012	135.050756452842	-10.3013909091258	-69.8702308416142	-10.2795475723001	-69.8627638694201	-3.67674629887403	132.05648374206	
1288500000	-2.96484367895427	135.085209384014	-10.2749483500914	-69.807966864648	-10.270536674139	-69.8641134783868	-3.68637337203808	132.021426548025	
1289000000	-2.96687261243407	135.204297432971	-10.2768440407074	-69.8555024980581	-10.2625647663427	-69.8643327540602	-3.68935905410035	132.092242340649	
1289500000	-2.97080452659937	135.266846706769	-10.2604480939369	-69.7995984118993	-10.2470182387692	-69.8054279658059	-3.69506251470784	132.089337724686	
1290000000	-2.9756327208163	135.418416363709	-10.2526324999831	-69.8091025583717	-10.2553917817159	-69.8048510146271	-3.7105336772167	131.992190464167	
1290500000	-2.97989276516083	135.440537737007	-10.2485073977372	-69.7857639917946	-10.2386864631194	-69.822305256001	-3.71575884533401	131.967315425269	
1291000000	-2.98420369476811	135.543773472709	-10.2439014297843	-69.7276330102047	-10.2298861432313	-69.7436205350421	-3.72590071311891	131.981622563156	
1291500000	-2.9943251411078	135.594059839977	-10.2347317910414	-69.8209778673904	-10.2270007178258	-69.7904648467803	-3.72486541707659	131.986134810714	
1292000000	-2.99222657929269	135.715351099309	-10.2262813671005	-69.7181571679433	-10.2270691048058	-69.6953386263036	-3.73881578236343	132.013207373034	
1292500000	-3.00881449326368	135.817111527399	-10.235786868743	-69.7122797874625	-10.2133217616438	-69.7339327205601	-3.74417739198831	131.902414573416	
1293000000	-3.0080141722096	135.899389860649	-10.2229772362423	-69.6723548051296	-10.2151352202124	-69.7163089285397	-3.75877693025015	131.978003601999	
1293500000	-3.0137427737856	135.863692543679	-10.19803233377	-69.7531411358062	-10.1919213579636	-69.7740170413017	-3.75604215068248	131.982465469918	
1294000000	-3.0197136900739	135.911347537048	-10.1862086994668	-69.752567510228	-10.1893835631905	-69.7012652336346	-3.76586664219932	131.928126896389	
1294500000	-3.03507722021699	135.964173346076	-10.1835508638732	-69.799351502263	-10.1799415729371	-69.7955885639685	-3.78604797529857	131.85993579928	
1295000000	-3.04315459148039	136.049794019385	-10.1809381140188	-69.7833570713055	-10.1723172505127	-69.6869528934348	-3.78259031844821	131.861074191383	
1295500000	-3.06449269998407	136.058622451768	-10.174847491049	-69.743480855894	-10.1637258086496	-69.7558916544724	-3.79776834344721	131.850207236482	
1296000000	-3.06797836876415	136.182931440088	-10.1550290897844	-69.6609364576727	-10.1586095324779	-69.7862327251694	-3.79771398783426	131.812303683534	
1296500000	-3.06321044669828	136.18594561769	-10.1578930041134	-69.7507873947732	-10.1606901855004	-69.8253574400527	-3.826156418325	131.732946987393	
1297000000	-3.07721292546208	136.283119912508	-10.1546752620603	-69.7932352884335	-10.1541566146252	-69.7493642997532	-3.82993856456407	131.795534000638	
1297500000	-3.10057855506054	136.28326840982	-10.1539795778996	-69.7511002099496	-10.1527405874806	-69.727469499094	-3.8422156347409	131.662802245854	
1298000000	-3.10010383897085	136.307547908567	-10.1402176139184	-69.7919704314272	-10.1258190295692	-69.8318091865431	-3.84523303125553	131.695140786932	
1298500000	-3.12202101220801	136.414193407313	-10.1290180000049	-69.7820583544881	-10.1415558210071	-69.8422310817052	-3.86791319983048	131.672155474124	
1299000000	-3.13622083526582	136.269148164237	-10.1108492446827	-69.8767866072083	-10.1028237951872	-69.9092788252041	-3.85436519723025	131.675615882233	
1299500000	-3.13419724948618	136.414628232555	-10.1213658299632	-69.7716836901945	-10.1055915961527	-69.8069182132438	-3.89018014122932	131.672833626832	
1300000000	-3.15884084319325	136.342512713007	-10.1210832996611	-69.907026717626	-10.1128463563706	-69.7830125338202	-3.89588097978044	131.573119934633	
1300500000	-3.16031148535515	136.45052219781	-10.0990577802	-69.7547933824034	-10.0993376046334	-69.6880347287468	-3.90491019667548	131.551325855562	
1301000000	-3.17592629110409	136.472913742304	-10.0900179989489	-69.838238681592	-10.0730577791385	-69.8077432213874	-3.91532220714969	131.514415951795	
1301500000	-3.18767227321197	136.52256150874	-10.0953909709011	-69.8671217622104	-10.0842017702393	-69.7809146814769	-3.92570134442118	131.415822219367	
1302000000	-3.19832712046253	136.431912360428	-10.0913494464802	-69.8199300870332	-10.0722298088974	-69.7965587658527	-3.9382250675777	131.410068618356	
1302500000	-3.21023932146294	136.562362810278	-10.0631382679228	-69.7519860157516	-10.0658456082008	-69.7578533306893	-3.94719613332649	131.390720808434	
1303000000	-3.23825219392547	136.453001093598	-10.0682665361726	-69.8196672489693	-10.0476810110448	-69.7486490173163	-3.94868870640669	131.34884641724	
1303500000	-3.24779450295363	136.446942620763	-10.0536028761356	-69.7960927278096	-10.0525642990096	-69.7265072072501	-3.95538673369975	131.313129912095	
1304000000	-3.25840438514361	136.547227126632	-10.0403741051837	-69.8322766166815	-10.0511907935708	-69.8139465266079	-3.96443134599069	131.262656501158	
1304500000	-3.27083938578302	136.518013204986	-10.0400337753299	-69.8814678397969	-10.0366219466104	-69.8343975395875	-3.98457982096186	131.136102338094	
1305000000	-3.29134127386392	136.504441741021	-10.031960806821	-69.9315837748145	-10.0179942488156	-69.8374196882645	-3.99955096609626	131.116227972182	
1305500000	-3.30814184306541	136.518586198587	-10.0426966508411	-69.9317497474985	-10.022149244218	-69.8414493407083	-4.00752594949341	131.129665920233	
1306000000	-3.3265806223217	136.473947710668	-10.0300361381859	-69.9541481643484	-10.0257252711756	-69.9220986508714	-4.02539353314137	130.990096541155	
1306500000	-3.33137986298858	136.419655598545	-10.0217920380597	-69.8381021691398	-10.0121627594642	-69.9318954620054	-4.03028334617919	130.936113605732	
1307000000	-3.36411463206441	136.424645061149	-10.0015980642441	-69.875722983499	-9.98171836776818	-69.8741629619847	-4.04376569645034	130.877054964249	
1307500000	-3.36765854517761	136.391416743268	-9.99496144769868	-69.9224992661682	-9.99404983497706	-69.9250605107906	-4.05420513873183	130.89807030699	
1308000000	-3.38628093967913	136.404920640065	-9.98609301277602	-69.9418717817112	-9.98713602190873	-69.9405554700096	-4.07460737272591	130.825134040167	
1308500000	-3.40345383178116	136.285421763507	-9.99296301381373	-69.9355666403196	-9.99887153939179	-69.8819019426112	-4.08105614084124	130.745620362385	
1309000000	-3.42548012276392	136.272222305349	-9.99111288220009	-69.9082952524995	-9.9518439962354	-69.9591232805181	-4.08315350720755	130.69263732436	
1309500000	-3.42994130378108	136.156579761114	-9.96401712585281	-69.9855256246011	-9.95557260290811	-70.0481153967125	-4.09182279509488	130.641663992886	
1310000000	-3.45179204825274	136.130373236956	-9.95960340366996	-70.0689258169845	-9.95193829554092	-69.996126104949	-4.10886141297466	130.531246134161	
1310500000	-3.47679214364628	136.08680424606	-9.94573851543148	-70.0627382252558	-9.94878544073342	-70.0590403178238	-4.12063635418159	130.540681923891	
1311000000	-3.48339026111016	136.053532843295	-9.95614597235887	-70.0572266640604	-9.93510976490615	-70.0744850761008	-4.13099876203102	130.461828449852	
1311500000	-3.51275250112534	136.026526189169	-9.94133231704643	-70.0576222234251	-9.93196992664808	-69.9554567377849	-4.1471465797847	130.392627964453	
1312000000	-3.53058055540981	135.934601977494	-9.94802208928286	-70.0340239338165	-9.92477310486599	-70.0953421677351	-4.15475990103878	130.289016718506	
1312500000	-3.54383740338684	135.808698249724	-9.93051503225214	-70.0405616703354	-9.91067569513913	-69.9662634827293	-4.15025839510509	130.254552749398	
1313000000	-3.56822843494803	135.804140878418	-9.92223266709571	-70.1511962650013	-9.92604391464304	-70.0061898034739	-4.17117697577091	130.167623160829	
1313500000	-3.58634743347372	135.710129940883	-9.90988951605399	-70.1151744503855	-9.91762689273377	-70.1421003208727	-4.17640416129018	130.05566284228	
1314000000	-3.60159445360429	135.53831532549	-9.90900311998027	-70.126555989137	-9.91361035732494	-70.0996633640581	-4.18058132778486	129.985673158033	
1314500000	-3.62920774664589	135.540415500238	-9.90017983143258	-70.2834274863182	-9.91049558504536	-70.0991850649346	-4.20440474686176	129.837042056585	
1315000000	-3.64930700472794	135.436308270047	-9.89586603206332	-70.2923855011245	-9.90584198028778	-70.2732204695709	-4.19935107534828	129.858731680441	
1315500000	-3.65380173224961	135.329252403886	-9.90540126998166	-70.2366785055908	-9.8809177530077	-70.0754787502526	-4.20882415443725	129.777816808258	
1316000000	-3.68921768459489	135.334683978259	-9.89854878338623	-70.3161985377472	-9.87386607219542	-70.2161322120797	-4.22865954376433	129.602444648018	
1316500000	-3.70164434120543	135.009359174656	-9.87901877445882	-70.2996848938041	-9.87709078611206	-70.2670822784934	-4.23350771241581	129.581098247871	
1317000000	-3.71415515460308	135.01842334031	-9.8641146382371	-70.3172660774488	-9.86167389435788	-70.2521798274399	-4.24605145249121	129.582588766437	
1317500000	-3.75207198092451	134.810523681408	-9.87828826229391	-70.448720507537	-9.85489371825678	-70.3733580677929	-4.2487966640176	129.486971847649	
1318000000	-3.75706402144491	134.718547445283	-9.88817114426981	-70.4063045717754	-9.86424745813236	-70.4003203206728	-4.27486268268319	129.359011464083	
1318500000	-3.77827845540268	134.540400224709	-9.86287754794844	-70.3024364176527	-9.85364859126304	-70.414905933175	-4.26831420914848	129.238706767549	
1319000000	-3.7878388488591	134.469751026789	-9.84670222272353	-70.4911927123096	-9.83951523573234	-70.4493009572754	-4.26978874588509	129.192906427818	
1319500000	-3.80077554271864	134.33348084394	-9.84134921068895	-70.3305363420219	-9.83244238230887	-70.439257172936	-4.28836754607719	129.165452869319	
1320000000	-3.82728925722813	134.217166065111	-9.84462119004202	-70.3594776889903	-9.84291488874266	-70.5393940115309	-4.2819832501668	129.04538137177	
1320500000	-3.84956084994402	134.071392270454	-9.84881109741902	-70.6097966219597	-9.83957828677999	-70.51922946678	-4.29789541527061	128.892534854752	
1321000000	-3.8662480410808	133.903439007691	-9.83573426741213	-70.654764306322	-9.82981048859203	-70.512176606228	-4.31070621463341	128.867728633628	
1321500000	-3.8878559221827	133.76090696403	-9.82304122602521	-70.6094709963211	-9.82580822854357	-70.5654130031443	-4.31766335367359	128.773412762897	
1322000000	-3.88902560229481	133.546208787078	-9.82688015069132	-70.5201607259217	-9.8147287327762	-70.6864530224172	-4.30961757243144	128.703779600506	
1322500000	-3.91507222392458	133.451882075084	-9.82416180812231	-70.4700510732625	-9.80936433872766	-70.4996857484855	-4.3206654320009	128.600337943222	
1323000000	-3.9353268030134	133.311007650831	-9.80877574742354	-70.6171931104323	-9.80784049406287	-70.657946684387	-4.33208746173545	128.489353844919	
1323500000	-3.94858288989921	133.178224742761	-9.81569368168816	-70.5607956959405	-9.81219361747245	-70.6956126010628	-4.32769609633492	128.468741294842	
1324000000	-3.96985752323422	133.007184783541	-9.82640180285457	-70.6691566217489	-9.79465239463597	-70.6827264155127	-4.33625214938371	128.354031229182	
1324500000	-3.97557246554874	132.775513579571	-9.80952936322948	-70.7194170511517	-9.805236263654	-70.63825790199	-4.35445043634451	128.278553731254	
1325000000	-4.01097840087534	132.642497258231	-9.78831584201031	-70.7044717561803	-9.80144239246467	-70.7596597936	-4.3531988727897	128.116865527693	
1325500000	-4.01357926863909	132.424612355787	-9.79495969949395	-70.8107865192723	-9.79289603361102	-70.8774263572812	-4.35811526543616	128.079736916626	
1326000000	-4.03655621254888	132.278248788113	-9.79496618354016	-70.797691918834	-9.76090894813497	-70.9375165100031	-4.37225229089334	128.008380605431	
1326500000	-4.03805833405542	132.059474096593	-9.78890607783034	-70.8616804410777	-9.78781906306041	-70.8241733867022	-4.37863334846196	127.901445061879	
1327000000	-4.06574506730855	131.902784927279	-9.7912673704831	-70.9509088040832	-9.763529873543	-70.8290400851011	-4.37378544427494	127.758165470383	
1327500000	-4.07452464629788	131.676298321696	-9.77138152599588	-70.8545787509303	-9.76033844213006	-70.928334678384	-4.38088608701667	127.662924128053	
1328000000	-4.08640018109141	131.487549011601	-9.76052272186964	-70.9125973936109	-9.7500824914207	-71.0274014309505	-4.37650498455071	127.612343900936	
1328500000	-4.09950326266795	131.286227974278	-9.78382931986566	-70.8508496684676	-9.76841187768824	-70.8841035200755	-4.37877268053035	127.592815689521	
1329000000	-4.12419135499913	131.134765838182	-9.7672189310056	-71.093378024309	-9.76433410026975	-71.0094479876528	-4.3974373572346	127.444182617416	
1329500000	-4.12419255990686	130.95427656208	-9.77005304307337	-70.9877150101404	-9.77879378936675	-70.9724646325431	-4.39014797981122	127.333178243492	
1330000000	-4.14698779987507	130.771010507196	-9.75544703684266	-71.0659186635616	-9.76853469387976	-70.9735497184849	-4.39200301653846	127.262902799863	
1330500000	-4.16461045695299	130.546095141888	-9.7597318612872	-70.9489749320859	-9.75144373309732	-71.0300253131666	-4.39643999490031	127.169417876906	
1331000000	-4.16346749808962	130.373421633917	-9.77383237182277	-71.075127123126	-9.74741315349906	-71.0844327862345	-4.39954119593868	127.063679944025	
1331500000	-4.17681154640784	130.144162126961	-9.75467206059738	-71.1342624738604	-9.75369545463008	-71.0364558958409	-4.40501427753832	126.981366331909	
1332000000	-4.18738945553573	129.906704640844	-9.76787446500386	-71.0861469488409	-9.74146104798984	-71.0618890910098	-4.39970120078246	126.916196415571	
1332500000	-4.19150126803648	129.675927047865	-9.74249248034946	-71.1309517489485	-9.7386334756592	-71.1910331330267	-4.41285759938142	126.819599413046	
1333000000	-4.20647942856135	129.604404709274	-9.75228650730147	-71.175200110204	-9.74653376685956	-71.2390313322612	-4.4122988951963	126.71617597369	
1333500000	-4.2176024874514	129.262308349833	-9.74473876316453	-71.2495922380349	-9.73530581163165	-71.3132456236096	-4.41503884367736	126.658435858818	
1334000000	-4.2215338934014	129.137186364783	-9.74099153369042	-71.2922607441235	-9.73100824593762	-71.2869915780269	-4.41621160250252	126.503169074611	
1334500000	-4.22265510013595	128.897136978498	-9.74295563271431	-71.2649227164416	-9.72683563012337	-71.3737023026732	-4.42234296739953	126.485157127448	
1335000000	-4.23094625136282	128.686249991596	-9.7390674754334	-71.3626426990275	-9.73450597017915	-71.1738089348234	-4.42038208022194	126.425134943449	
1335500000	-4.24608786635318	128.548792837806	-9.74743639469447	-71.3479149443242	-9.74441797733402	-71.3284651480411	-4.41666371208829	126.323680673403	
1336000000	-4.25184864586107	128.260187719113	-9.72836750927467	-71.4554373646357	-9.73619879455342	-71.4706090958416	-4.41020841461172	126.222827535564	
1336500000	-4.25093041729742	128.124213236637	-9.7431024536091	-71.4230413384917	-9.73015259287275	-71.3851462270781	-4.42490925798952	126.198553802275	
1337000000	-4.24994101374732	127.928928542275	-9.73060923025079	-71.3113011606255	-9.73490280095048	-71.3850497215543	-4.4136919120432	126.077955639295	
1337500000	-4.26361080447164	127.710191097168	-9.74821926201753	-71.4267146421378	-9.71375767684994	-71.5520265916337	-4.42488694766138	125.933301173985	
1338000000	-4.2661851336788	127.478092466845	-9.71785073561227	-71.4189519105783	-9.71087460345387	-71.4139756458893	-4.40921375851882	125.880668561575	
1338500000	-4.26312844282267	127.265330491898	-9.71698900364861	-71.5454108975711	-9.71669482162488	-71.5137056072887	-4.41659808934481	125.778759721851	
1339000000	-4.26339990724817	127.068499269054	-9.71127915001201	-71.5049388750975	-9.71141924239817	-71.3822069194018	-4.41786828264663	125.707158932611	
1339500000	-4.28745823106027	126.921602392261	-9.72978583235419	-71.497700651408	-9.73127552228083	-71.5927742666105	-4.41112447527824	125.741906426652	
1340000000	-4.27654567834364	126.671156307633	-9.71261135956236	-71.4718502871468	-9.71532980811064	-71.5133375048482	-4.40994629949812	125.683467473866	
1340500000	-4.2864231973502	126.476923190946	-9.73453463499457	-71.457179502232	-9.71898227035138	-71.4812029574956	-4.41576021873867	125.606625518081	
1341000000	-4.28373157980534	126.31014833706	-9.71817979791501	-71.6028601645509	-9.70332785858049	-71.527511325023	-4.41032221169823	125.490184071913	
1341500000	-4.27061295055732	126.14676799391	-9.69669001908145	-71.6459701667495	-9.70224272602084	-71.6535897373527	-4.39784503625785	125.405996895346	
1342000000	-4.27137172989455	125.972706660283	-9.71774060377635	-71.6577705103945	-9.71829656077832	-71.6271283391128	-4.40787954765583	125.338012875871	
1342500000	-4.28300870906129	125.716814631806	-9.71878492938414	-71.6731373793895	-9.72544292010777	-71.5991037763825	-4.40772412882078	125.222489556676	
1343000000	-4.27751612109063	125.63961548304	-9.73015491532705	-71.6946494304385	-9.71660498755247	-71.6442321771347	-4.40015223742762	125.204901976094	
1343500000	-4.27671751761505	125.520101362823	-9.73082924769381	-71.5210114011008	-9.70931461360016	-71.6701492977046	-4.40266420474939	125.144559472321	
1344000000	-4.25928421717571	125.266484718893	-9.71406818811846	-71.7281474010177	-9.69539288969906	-71.6077250564375	-4.40598410933653	125.124794118832	
1344500000	-4.25569774735264	125.01551491671	-9.71494099635085	-71.7717948954396	-9.72436144950264	-71.7327105272975	-4.40732494370638	125.089159435304	
1345000000	-4.27766611106215	124.97843188016	-9.71559569834069	-71.6953952880103	-9.69725650221163	-71.6873310672618	-4.39827328920184	124.909682631076	
1345500000	-4.24822887388031	124.774469572754	-9.70814379382705	-71.6546937916644	-9.67467500226883	-71.6456614494615	-4.37735829794419	124.965592701987	
1346000000	-4.24177453879008	124.662498996658	-9.700409304942	-71.6603759869711	-9.70064400797498	-71.6086676689892	-4.39473432526617	124.900782955324	
1346500000	-4.23516949350597	124.472158420453	-9.69804719699357	-71.6014616722302	-9.69090382253555	-71.7411820039173	-4.37880796447586	124.768819255791	
1347000000	-4.23229107700324	124.336890056556	-9.70948793508851	-71.7007907090009	-9.70424089753021	-71.6667344670704	-4.38093357735372	124.795473251874	
1347500000	-4.24041868550625	124.201948789692	-9.69305391289045	-71.6012623106146	-9.70557573513307	-71.7154617246055	-4.37255186123517	124.767370569341	
1348000000	-4.2334146706094	124.065281851514	-9.69783818517539	-71.7574809142153	-9.7201721893165	-71.5490707137807	-4.37910718653721	124.67710592075	
1348500000	-4.21248942217463	123.883292804113	-9.70882852651708	-71.6308931423947	-9.68935399561755	-71.6810574582185	-4.3765708413013	124.559900164384	
1349000000	-4.2123628404102	123.782824498351	-9.7005989766319	-71.8184099635182	-9.7016785108818	-71.6785404096432	-4.35869000286401	124.603121316489	
1349500000	-4.20448927106008	123.664187181442	-9.69857660309627	-71.7064084544384	-9.70665299855026	-71.6830728077235	-4.36993981447629	124.508993792338	
1350000000	-4.20873161945173	123.522278025223	-9.70200590869268	-71.7809900181527	-9.70777963369716	-71.6299649170128	-4.36638899486203	124.505329826573	
1350500000	-4.18677230740155	123.367894520704	-9.70532525454562	-71.6299700836531	-9.69470962742601	-71.6475676213707	-4.34904594467358	124.43049770954	
1351000000	-4.19086689321946	123.315089091668	-9.71884507057326	-71.6638553126281	-9.68615192096291	-71.6972300343568	-4.35376241884594	124.426770893016	
1351500000	-4.16521646072446	123.169144491036	-9.69242132009361	-71.677315216492	-9.68995632786564	-71.6697135565472	-4.34607449519253	124.363360428458	
1352000000	-4.15492801645735	123.098461249238	-9.69696906155217	-71.7634313445617	-9.70904565011344	-71.6141932858488	-4.34639855891022	124.325147169004	
1352500000	-4.13782488188059	122.828599561293	-9.70600109462615	-71.7773548020457	-9.6780040122164	-71.7506735163417	-4.3332889342759	124.250447372779	
1353000000	-4.13301247509166	122.844297778514	-9.69212205067349	-71.6832345175001	-9.6887378524527	-71.7296009116011	-4.34261335127294	124.218974766107	
1353500000	-4.12998550921544	122.775846557557	-9.70583490890033	-71.7630440693848	-9.70828189530661	-71.7500068830174	-4.35524664760059	124.206106801668	
1354000000	-4.12423090919231	122.693363531451	-9.69137966593671	-71.6487923603133	-9.70081788833852	-71.7555676540173	-4.34884944982425	124.22612260678	
1354500000	-4.10757961914314	122.64280202055	-9.69268196603164	-71.7001014930918	-9.70437238517035	-71.6890509679448	-4.3456749883159	124.223969691151	
1355000000	-4.08804016787105	122.453899161994	-9.69076250774792	-71.7108753597758	-9.69375848355456	-71.6857622031863	-4.32823539242943	124.181757907737	
1355500000	-4.08429799159582	122.449520026464	-9.6732986945994	-71.7241608025378	-9.69683093766381	-71.6866090992092	-4.33781191398005	124.186551867479	
1356000000	-4.06841209280675	122.348122283015	-9.68578853758561	-71.7012472379319	-9.67643919599438	-71.6460636303749	-4.33167526970275	124.123030329053	
1356500000	-4.06124080180535	122.249181005468	-9.6975669518284	-71.7411059361928	-9.6934660493556	-71.6660733052182	-4.32646017570307	124.129157337022	
1357000000	-4.04662683536379	122.271892907125	-9.70831939984746	-71.6406907592683	-9.68166827912521	-71.6884144002954	-4.3302779136839	124.048412495321	
1357500000	-4.04339220979502	122.23147371636	-9.68975577045234	-71.6986119537932	-9.69973563000057	-71.6363739626394	-4.3320939475496	124.03011710659	
1358000000	-4.02455097720891	122.16048587237	-9.67489597539602	-71.6252034667737	-9.68241341479533	-71.6944372048265	-4.31455258275368	124.004756252321	
1358500000	-4.01011049962179	122.154109907229	-9.67558395776524	-71.5802605498124	-9.68821563389311	-71.6427484502843	-4.30997496739938	123.994969828218	
1359000000	-4.00182504674611	122.095532752681	-9.68938884317272	-71.6215466843147	-9.68528433112856	-71.5873177591898	-4.30608465526721	124.032299633642	
1359500000	-3.98712340568995	122.046728909804	-9.68194717116549	-71.5955730522188	-9.67669646090728	-71.5608298298731	-4.29985233968825	124.046234775751	
1360000000	-3.96623585375487	122.004927772063	-9.68475753515211	-71.6251404304292	-9.66871893217688	-71.608427556969	-4.30765540339855	123.970685931686	
1360500000	-3.95696185307537	122.034304784732	-9.67901968162578	-71.5503083360123	-9.6748815322959	-71.5459920338058	-4.31115858682241	124.009268965648	
1361000000	-3.95357939211099	121.984319093142	-9.70011369505953	-71.5405135725944	-9.68706811171512	-71.6239355395366	-4.31436154495206	123.977988157992	
1361500000	-3.93935663585815	121.995557428715	-9.67928766612486	-71.5499252436904	-9.68976082296649	-71.5193341632171	-4.29768256360642	124.018416922142	
1362000000	-3.91448239582485	122.031089017002	-9.68382718504402	-71.538734064265	-9.68336106841998	-71.5160458826744	-4.30824022639822	123.934638385069	
1362500000	-3.89217259078932	121.9901117779	-9.67196272157263	-71.5144078806885	-9.66839819672021	-71.4966203606849	-4.30476927047031	123.933654573872	
1363000000	-3.89426124540892	122.030290869165	-9.67994600493514	-71.4330541503402	-9.67837448909991	-71.4298291119448	-4.30631935100588	123.947443383582	
1363500000	-3.885354986852	122.041273869831	-9.67054105264609	-71.4594537659167	-9.6641986076663	-71.5047625114021	-4.29862703285807	123.915990822809	
1364000000	-3.86394391368992	122.098925349543	-9.67752656526225	-71.4782910129466	-9.67407889940474	-71.4879515840415	-4.29658289932843	123.954967361487	
1364500000	-3.86032590488655	122.089399676185	-9.66608930813026	-71.3823554823844	-9.66772072425182	-71.5089728272314	-4.30912690070252	123.931353379163	
1365000000	-3.83031356756558	122.081088655127	-9.67139531204535	-71.407778913451	-9.65179899923541	-71.3630336217543	-4.30068537181211	123.9276268974	
1365500000	-3.83132698781836	122.076853719351	-9.66281355157866	-71.375162999311	-9.66762001505577	-71.4244492197662	-4.31167748959466	123.932673667366	
1366000000	-3.81862580231167	122.172128975091	-9.66965312902063	-71.3411852622138	-9.65285984138902	-71.3844940257833	-4.30652758883986	123.919823079832	
1366500000	-3.80566702630657	122.168251689133	-9.66478958085646	-71.25457730285	-9.66139866837631	-71.3184545126163	-4.29923716922151	123.90760555325	
1367000000	-3.79721011911132	122.233310118532	-9.66033833966626	-71.3200004843176	-9.65603013594906	-71.3189551698428	-4.30504542441624	123.955043110659	
1367500000	-3.77953791644291	122.26423433475	-9.66056107669442	-71.2541839748633	-9.6554031350574	-71.271252631345	-4.29932754991793	124.014833420775	
1368000000	-3.7656693046459	122.327750373532	-9.65154695647556	-71.2228212290295	-9.66592615657069	-71.2489709284895	-4.30281347871118	123.961258657941	
1368500000	-3.75603058738134	122.372659517759	-9.64827674916837	-71.2012211818296	-9.64264152437193	-71.2785759379009	-4.30889067786445	123.958999024829	
1369000000	-3.75225917814038	122.46540397875	-9.64522938275084	-71.260873847468	-9.64335180689654	-71.2069104747271	-4.31295339298465	123.983862391123	
1369500000	-3.72617265118143	122.450860336485	-9.64661309411112	-71.2151146987166	-9.6444870626454	-71.2171219833698	-4.31424223753247	123.96756147408	
1370000000	-3.7313832404467	122.539964321214	-9.64157241514335	-71.2000033320471	-9.64107655333806	-71.1575974800815	-4.31176520865826	123.982914431973	
1370500000	-3.71439963477088	122.60417351366	-9.65304207638078	-71.1312615458163	-9.64021154772576	-71.1902139775401	-4.31732805810442	124.022503934769	
1371000000	-3.70131715926921	122.689893875891	-9.64898200356918	-71.0875327696001	-9.6375568413159	-71.0966245314201	-4.31352390069194	124.067663994565	
1371500000	-3.70102305812569	122.795414923093	-9.64235869826546	-71.0298719387961	-9.62471216350002	-71.1281858581437	-4.32101410573088	123.946788011112	
1372000000	-3.6865058017352	122.784887453074	-9.63397649652606	-71.15097901654	-9.63250374561346	-71.128702135675	-4.31930073891927	123.995780143905	
1372500000	-3.66765956097709	122.978141371426	-9.61902806437912	-71.0200611110057	-9.62214803361407	-71.093749057591	-4.32622843819687	123.992797159727	
1373000000	-3.65313032735302	122.993356075418	-9.61736670745627	-71.0576648421548	-9.62635367577492	-70.9759540551294	-4.33030429867873	124.02335283891	
1373500000	-3.64775293205747	123.092716288461	-9.62226318865632	-71.0530009227129	-9.62491011589228	-70.9836967390204	-4.32314980465885	124.002042716572	
1374000000	-3.63793913631907	123.206564196559	-9.61704168978377	-71.0075742655993	-9.61517678428886	-70.9683821225288	-4.33666862776914	123.976098112416	
1374500000	-3.62328228187874	123.242739317882	-9.60308246437558	-70.8953811017969	-9.61221633217689	-70.9217727275196	-4.33377239341735	124.001417673772	
1375000000	-3.61531128374079	123.350558802195	-9.61304191014151	-70.9694758361742	-9.62019182757939	-70.8957751199669	-4.34976757840533	124.132353530447	
1375500000	-3.61303609798968	123.371515744141	-9.59645234073992	-70.9126532085853	-9.58972174661676	-70.8598703773736	-4.34310855343554	124.006729177089	
1376000000	-3.61409952494291	123.530624551966	-9.60239956949837	-70.8557499666742	-9.58841677006488	-70.8210620384443	-4.34374302874477	124.024100315604	
1376500000	-3.60138395134985	123.658965616851	-9.60332211914988	-70.8451071451975	-9.60080656216785	-70.8659307676482	-4.35122340812949	124.065316564836	
1377000000	-3.58472092997902	123.709607481344	-9.58241513897961	-70.8692335043608	-9.58918746309165	-70.7147565081528	-4.36454732069303	124.086209423327	
1377500000	-3.58108039646544	123.825214664147	-9.59133537113366	-70.7265280218044	-9.57557147985087	-70.6789502503832	-4.35533086029816	124.096623687659	
1378000000	-3.58389273588846	124.026649407975	-9.58741279304048	-70.7627220938055	-9.57973141570122	-70.6626028091073	-4.36417550284398	124.102968682401	
1378500000	-3.55924388027388	124.134170582862	-9.57323873379392	-70.6778548827515	-9.57866333910094	-70.6918389050505	-4.37389775357924	124.06555994201	
1379000000	-3.55554825593982	124.16820555047	-9.56565103820785	-70.5475753831355	-9.55910311894579	-70.6531027775153	-4.37666410789984	123.979386544131	
1379500000	-3.54295402336841	124.346391210674	-9.5516073727313	-70.6220397184247	-9.56567330329562	-70.6488365911272	-4.39791151474577	124.117207477793	
1380000000	-3.5368536534347	124.417218209574	-9.5591797537089	-70.5962691261309	-9.56569945913657	-70.6045516655911	-4.39998698394676	124.11432213695	
1380500000	-3.53569047012344	124.599677833513	-9.55604935164101	-70.6277874770752	-9.5409969320439	-70.6253770591336	-4.40245603187291	124.054966713868	
1381000000	-3.53041760757296	124.710114509386	-9.54130898107912	-70.5135432682571	-9.55527483560696	-70.5586314521778	-4.42608170626458	124.135467164694	
1381500000	-3.52344177865789	124.79987769906	-9.53689387534858	-70.5157952065676	-9.53817209177744	-70.5413100924523	-4.41948964152915	124.130678153711	
1382000000	-3.52768191565566	124.858680029438	-9.5399529529477	-70.5174577438186	-9.53795347875685	-70.5566128959613	-4.42764614581841	124.059266051129	
1382500000	-3.51818852003942	125.030000347704	-9.52650990194261	-70.4913183558423	-9.50558512429973	-70.4826633791247	-4.4192873238434	124.054323925817	
1383000000	-3.51392263406311	125.178960905614	-9.52401102401734	-70.4464614828624	-9.51713346200789	-70.4592736482199	-4.42685884782516	124.071451342956	
1383500000	-3.50506645300053	125.325855335478	-9.51151790999611	-70.4587931794609	-9.5116811187069	-70.3763839668982	-4.44516299246275	124.010222164175	
1384000000	-3.50975442888638	125.42993484108	-9.51320475103992	-70.3673953490607	-9.52032777370797	-70.3771362518499	-4.45553241715908	124.083652351412	
1384500000	-3.50208282540261	125.525599317672	-9.50466201218537	-70.3220748579013	-9.50476732427363	-70.3085137212649	-4.46729256845394	124.013180917867	
1385000000	-3.51175815983017	125.666593868446	-9.49713395180519	-70.3532013663941	-9.48721733204309	-70.2864228068361	-4.46309498650866	124.123629275365	
1385500000	-3.49443165092365	125.783637063693	-9.49340624921719	-70.3328457937661	-9.49656478409912	-70.2919709721402	-4.48745431686258	124.133270853597	
1386000000	-3.50322806883608	125.893270234297	-9.47844819891686	-70.3019826746816	-9.4785183466975	-70.3446069321398	-4.49011186822744	124.036922819465	
1386500000	-3.5071444210254	126.043182023007	-9.47492814128011	-70.2378460713779	-9.46525585580705	-70.2008705752235	-4.48978840890405	124.077720864652	
1387000000	-3.50880791156797	126.145812850116	-9.47620419536267	-70.1790604881578	-9.45640261131641	-70.2559804700394	-4.49571867913347	124.103403921903	
1387500000	-3.49426267139682	126.291666760661	-9.4539456895069	-70.1378548604209	-9.44412321322089	-70.2273903504119	-4.49673390746714	124.113577742363	
1388000000	-3.50600513041963	126.447045950115	-9.46060173809464	-70.1333424660236	-9.45087676486585	-70.1874733512069	-4.52726546764725	124.052289838925	
1388500000	-3.4933609459157	126.566672747619	-9.44124423380995	-70.1162738790223	-9.43496716262799	-70.1570486517619	-4.53178140237725	124.009384054343	
1389000000	-3.51359341067364	126.662742580956	-9.42805906893126	-70.2132188265637	-9.42455276735335	-70.1595817855402	-4.53609849389985	124.014877219638	
1389500000	-3.50668200089396	126.767906876871	-9.42260443596686	-70.089205557585	-9.41933311880759	-70.1379693772506	-4.54962301723422	123.943983488473	
1390000000	-3.49883040125328	126.910363443316	-9.4398431380178	-70.1025488652567	-9.42009169691896	-70.0716343391227	-4.57020269580344	123.945051433463	
1390500000	-3.49554042324501	127.038128550689	-9.40667098622966	-70.0190154659772	-9.41470488989769	-70.0397630058348	-4.56632178327591	123.965312496273	
1391000000	-3.51670358870008	127.150098554652	-9.40139865669771	-70.0650631772152	-9.41776217235795	-70.0531805871571	-4.58364349682229	123.976603496897	
1391500000	-3.51010908649077	127.197558530489	-9.39075239049157	-70.0866649275406	-9.37623734592885	-70.0257175315899	-4.59167045203061	123.954655806628	
1392000000	-3.50719012387937	127.425181592544	-9.39391585563501	-70.0584650446609	-9.37697904392759	-69.9560756522114	-4.60603243474837	123.875240659697	
1392500000	-3.52078975223429	127.447975351284	-9.38748979032513	-69.9838489840349	-9.3885844427299	-69.9480701281469	-4.6256173680828	123.876907703368	
1393000000	-3.5067581806307	127.592141673549	-9.35487520622766	-69.9876371371509	-9.36983338592995	-69.9733652069817	-4.6291443743551	123.803838189752	
1393500000	-3.5163030323662	127.694113415538	-9.36558958661908	-69.8774332140993	-9.35968359744799	-69.885652331346	-4.64119181497787	123.858429318837	
1394000000	-3.52223348017298	127.863553324559	-9.3556019368911	-69.8743187696972	-9.35817507290549	-69.8922684726224	-4.65280739594332	123.829812224748	
1394500000	-3.5346405993041	128.0164469054	-9.33848041288823	-69.8349237356184	-9.34619411904547	-69.9535510223483	-4.65407554382293	123.81245417924	
1395000000	-3.52462611037906	128.065817495347	-9.31545575709716	-69.885951840304	-9.32443917474864	-69.9353368260858	-4.66636978314909	123.701121249437	
1395500000	-3.54432435717213	128.175588848535	-9.30624546093304	-69.8513831267982	-9.30941686766216	-69.888475427719	-4.66992813055599	123.640243839967	
1396000000	-3.54117655147607	128.255452211384	-9.31397144732665	-69.9472706469825	-9.31221697696224	-69.8364643988678	-4.69572200274482	123.708974222116	
1396500000	-3.54451045359637	128.430300247123	-9.30712721299633	-69.9313412440574	-9.29818322037775	-69.8836286182778	-4.70161398905893	123.583669618174	
1397000000	-3.54762301348909	128.557459890762	-9.27943168074464	-69.8279589118568	-9.29183190890889	-69.7307242050399	-4.71043419173703	123.629132040071	
1397500000	-3.56212813026384	128.562400969595	-9.28174611047758	-69.8376529440897	-9.28625001384194	-69.7850950888911	-4.70547547473573	123.487689584636	
1398000000	-3.5632388893553	128.748408283175	-9.26270272991264	-69.8734672354693	-9.26716050642819	-69.8257810454032	-4.72952015600985	123.55344051548	
1398500000	-3.5763600687623	128.831654871296	-9.25726141379484	-69.8297116722549	-9.25715805295694	-69.7841036745233	-4.74869326164619	123.497316108534	
1399000000	-3.59760079375769	128.993061479125	-9.24972612447542	-69.7452036103402	-9.24734811442223	-69.7994752700047	-4.74353727185747	123.480776856467	
1399500000	-3.59551168146879	129.06100888373	-9.23745177848853	-69.7925395516939	-9.23767235251606	-69.6755841947484	-4.77036400846215	123.317894439586	
1400000000	-3.59784133513931	129.025017197099	-9.22175139176227	-69.6959371187355	-9.22293264642201	-69.787478417086	-4.77020463520085	123.308123157548	
1400500000	-3.61572387923752	129.198185364202	-9.23958037049494	-69.5942230103453	-9.21692834356162	-69.6506731905604	-4.78100458837561	123.260877244041	
1401000000	-3.62354516713169	129.238912070346	-9.21902263431264	-69.6551701437522	-9.1885232794845	-69.7648175006357	-4.78837666064096	123.282934221638	
1401500000	-3.62966776354575	129.393188595495	-9.20874225412778	-69.651419417672	-9.19933007831855	-69.7183653021481	-4.79373241123408	123.24885568976	
1402000000	-3.63481269497011	129.50150567058	-9.19598413410885	-69.7342177156148	-9.17261644938078	-69.5866143614116	-4.81605635071168	123.171013127212	
1402500000	-3.6616435122563	129.531727661687	-9.1636725853757	-69.6618471119216	-9.15867969757161	-69.8280680939184	-4.8082092404743	123.056311678284	
1403000000	-3.67209238366898	129.669433667977	-9.15221911697243	-69.7453411089099	-9.16553664253851	-69.6938756424319	-4.83799861681512	122.962305372285	
1403500000	-3.67156765561134	129.636104868039	-9.15798158304447	-69.6570182368207	-9.13099540493767	-69.6841231188788	-4.85121976614796	122.994555715138	
1404000000	-3.68257807680966	129.788797810123	-9.15571195422097	-69.7226705025626	-9.12227772424703	-69.6602413749181	-4.85586328873956	122.992052387898	
1404500000	-3.69314595142896	129.871597721456	-9.13195117163317	-69.7419258582653	-9.12784916265162	-69.6844319733631	-4.86296406058025	122.898964237298	
1405000000	-3.70840592327403	129.880059810178	-9.12970805317432	-69.7269953545749	-9.11262474083913	-69.6574263194764	-4.87108839270472	122.844842590149	
1405500000	-3.72652918512652	129.92858865784	-9.10735801241064	-69.6606284922293	-9.09152571194653	-69.7291339140859	-4.88508607175531	122.762985088195	
1406000000	-3.73776622976268	130.063961020673	-9.110965750306	-69.7116273541619	-9.09184139020946	-69.7694343470353	-4.89063110877697	122.702847342795	
1406500000	-3.73684733248554	130.025466326516	-9.088938626385	-69.7633322061053	-9.0661805263773	-69.7266982708075	-4.89962221868154	122.617317066999	
1407000000	-3.76611857476985	130.097378834365	-9.07874067422608	-69.5803060938491	-9.07214730369628	-69.6544204936645	-4.90287287002382	122.623435263006	
1407500000	-3.78263062760602	130.168322711277	-9.08117084741171	-69.6649199539807	-9.05261708471658	-69.7305060165384	-4.91034446768468	122.535483521743	
1408000000	-3.79310964870467	130.170414881974	-9.07465531794658	-69.7487013293351	-9.04973489353508	-69.7141817166965	-4.94204066972347	122.387109347081	
1408500000	-3.80275003269575	130.160563401084	-9.03245611745212	-69.747963565351	-9.02578473592372	-69.7729230705616	-4.94494170092037	122.320813795747	
1409000000	-3.82515212595651	130.225373457951	-9.01979945690537	-69.6691172884045	-9.01998017456754	-69.7258771025056	-4.95074283024828	122.292493809921	
1409500000	-3.83503164520464	130.275430522803	-9.01070035647566	-69.6390742729245	-8.98833064616565	-69.6919745347454	-4.94827454356213	122.198481965868	
1410000000	-3.86078648725357	130.362050785019	-9.01376386157678	-69.7722897126087	-8.97965356181028	-69.7849154310637	-4.96342670983771	122.103038850295	
1410500000	-3.88076496418654	130.263598018187	-9.00259843396512	-69.8622571527493	-8.98454593956577	-69.7887871553681	-4.99051659634938	122.014872400439	
1411000000	-3.90281569380549	130.331594566588	-8.97638408750491	-69.7369768927903	-8.97346332039769	-69.6903446204241	-4.99437774446336	121.958101104397	
1411500000	-3.91804494434514	130.261985557778	-8.97236883138635	-69.8052888368532	-8.9482957552897	-69.8040467631969	-5.00218960720362	121.859045006279	
1412000000	-3.93177595110152	130.372974936278	-8.9474118994207	-69.8283576843722	-8.95339947987222	-69.7694371118056	-5.00681777397124	121.784449663128	
1412500000	-3.94943003908477	130.265913770066	-8.93790692224681	-69.8677086289443	-8.94043615959762	-69.8966466716007	-5.02383278917356	121.672567095137	
1413000000	-3.97483186310955	130.329142642485	-8.93300079580291	-69.8072247198166	-8.93293685065963	-69.8636567872741	-5.01595357662606	121.544843797648	
1413500000	-3.98618077654395	130.285649156233	-8.9233161250381	-69.8994957156414	-8.90529905827819	-69.8911061519402	-5.03130534811313	121.550693811238	
1414000000	-3.99292370123824	130.28320775858	-8.89503075533027	-69.9240651181627	-8.89235955492527	-69.9120060736819	-5.0317047713307	121.485107727276	
1414500000	-4.02219495594189	130.176821964893	-8.90205919130339	-69.8020814404016	-8.88624500054002	-69.9747342363532	-5.03442844820307	121.432435260469	
1415000000	-4.03562736699786	130.241472479521	-8.88650279430935	-69.907944682135	-8.87277078709465	-69.9161853989986	-5.05640383308658	121.312357795684	
1415500000	-4.07483604262127	130.19039949208	-8.87104755461067	-69.9025550664362	-8.86627671950978	-69.9742519635444	-5.04625089137322	121.220366425427	
1416000000	-4.08204234474596	130.082211127293	-8.86129222080971	-69.9997528933869	-8.86132291398687	-70.0570215993526	-5.07252870353695	121.100476899852	
1416500000	-4.10636893138746	130.184292644205	-8.84151951635308	-70.0123906796992	-8.85491589264817	-70.0354494996873	-5.0858395233594	121.025322961055	
1417000000	-4.11839972758701	130.047428072094	-8.8340210650955	-69.9947692601236	-8.8516438329563	-69.9753005984051	-5.08672714436441	121.040175537155	
1417500000	-4.15580126035004	129.949675298587	-8.83587097155879	-70.1212428056567	-8.82215470338959	-70.1315304673457	-5.09326602290482	120.787927695347	
1418000000	-4.17594664661919	129.966280163848	-8.83232022178054	-70.1453485456996	-8.80586528171018	-70.0229741093524	-5.07842413851502	120.733024216828	
1418500000	-4.18955341447511	129.809813789189	-8.81871417636746	-70.1216113294056	-8.80244336917393	-70.1790124937044	-5.1060460910479	120.652632027971	
1419000000	-4.20468017565524	129.725657822899	-8.79379389025768	-70.2320310670648	-8.78932442533803	-70.1583957722346	-5.11359027355983	120.627180349579	
1419500000	-4.24032828815595	129.774809538794	-8.79499026940234	-70.1602558943135	-8.79485721590452	-70.0791300324344	-5.10456131532224	120.483756271692	
1420000000	-4.24931444371485	129.647263947785	-8.78131019560169	-70.2845663558835	-8.77817615400495	-70.1656547723043	-5.11814886316782	120.40730069699	
1420500000	-4.27544002097974	129.543571848251	-8.7567649199038	-70.2667715903685	-8.73352173899685	-70.2605895634562	-5.12093594983069	120.247255426884	
1421000000	-4.29981745243614	129.515037475995	-8.75370780039008	-70.2654578472078	-8.76299043490121	-70.3403193667788	-5.13108843149297	120.246923817001	
1421500000	-4.31868440753409	129.287758584145	-8.75344924942544	-70.3555158894629	-8.73131613046628	-70.3984208057114	-5.12623120834766	120.129853301104	
1422000000	-4.35318003465037	129.317886508929	-8.74357333590277	-70.3655400877394	-8.74369509680877	-70.3893636846477	-5.13234561426381	120.051357165205	
1422500000	-4.35227335943658	129.214541168254	-8.72145317894767	-70.4095443322728	-8.71706624339688	-70.4198945204635	-5.14764371208427	119.880236331768	
1423000000	-4.37769977418269	129.00009955558	-8.71080638401741	-70.4401403565193	-8.71279774645558	-70.4148567128845	-5.14145660844589	119.866024272274	
1423500000	-4.41189505038816	128.883233329021	-8.7119078023148	-70.5027602451459	-8.71094952577368	-70.5637688791519	-5.15534850269014	119.653507966899	
1424000000	-4.42497884068704	128.772696481366	-8.69838306009862	-70.6253743515249	-8.69332427002312	-70.592525191076	-5.15637512647664	119.529992902254	
1424500000	-4.4597619491553	128.605625902199	-8.6859186097592	-70.6603816335344	-8.68892075969707	-70.5019383330574	-5.16155356076107	119.541488979327	
1425000000	-4.48716380626972	128.481846001727	-8.68022678985782	-70.7044050134418	-8.67456919541232	-70.6175501066756	-5.15977030681638	119.475472970885	
1425500000	-4.51379256037957	128.282941724571	-8.6714013345381	-70.7685632106729	-8.66251709817406	-70.7813091314367	-5.17554267050493	119.326881064468	
1426000000	-4.52943849003884	128.139760212953	-8.65851843783453	-70.8113875419793	-8.65268312620232	-70.8418830863184	-5.18203370661924	119.310185670695	
1426500000	-4.54542611436113	128.081285831468	-8.64901737989521	-70.7457043958789	-8.65957461375718	-70.8182725476768	-5.18217622413693	119.245087497345	
1427000000	-4.5733073573561	127.860819380644	-8.62277390926209	-70.8728238113452	-8.62845677268552	-70.9095709271881	-5.17528460562082	118.97028528636	
1427500000	-4.58967215349588	127.723664853711	-8.62347322633156	-70.9406058431654	-8.63549424433221	-70.8974301697696	-5.19134140629135	118.950142933368	
1428000000	-4.61123167996819	127.53642848994	-8.62072016777523	-70.8614842956898	-8.5934904727911	-70.9388429078093	-5.19163344539776	118.800949691213	
1428500000	-4.63189711748939	127.359393629273	-8.61147447966962	-71.0574976624393	-8.58869265362063	-71.016810414116	-5.17006263127542	118.660052806535	
1429000000	-4.66205454376344	127.265703683833	-8.60915528770389	-71.0571490053949	-8.61875078400114	-71.0413618551829	-5.19360418717327	118.646209277544	
1429500000	-4.6799648623872	127.148607576983	-8.60018676312803	-71.0352644290247	-8.58710277019793	-71.1008576294657	-5.19734015668648	118.534151290162	
1430000000	-4.71739188503569	126.922527395511	-8.5871907034278	-71.108529968165	-8.58575942159447	-71.0205116850349	-5.197987560101	118.484010303106	
1430500000	-4.71683183883821	126.711673339645	-8.58082208840243	-71.1649072792295	-8.56438613580741	-71.1515538444621	-5.19389019329379	118.385917182683	
1431000000	-4.74519339320985	126.507811374899	-8.57387204328591	-71.2731648990717	-8.55570990909744	-71.3167139993285	-5.18952231642494	118.221529805113	
1431500000	-4.76706921683392	126.339365929213	-8.57800706364239	-71.3283336670713	-8.56383586471184	-71.3055879244196	-5.19338620988724	118.152875524034	
1432000000	-4.77232325799922	126.072509708684	-8.56022399624412	-71.3010150352174	-8.55674882727912	-71.2728509401126	-5.19718204451937	118.054136928146	
1432500000	-4.80758047756076	125.913905924224	-8.55395120065909	-71.3405654023212	-8.54615561232267	-71.3990991920785	-5.20296260095314	117.952310256939	
1433000000	-4.82907044598264	125.750538874101	-8.55538757606015	-71.4441795828636	-8.52093197824886	-71.5027460379501	-5.20956830455518	117.864124749035	
1433500000	-4.83131446423373	125.46771065641	-8.52730838083511	-71.5548856217285	-8.5240353958609	-71.5455649614578	-5.21006828433709	117.818351755659	
1434000000	-4.86077732749502	125.22844851102	-8.53585260318923	-71.6470788776259	-8.52881806268414	-71.662491716643	-5.19478533519119	117.705535209214	
1434500000	-4.87624207521283	125.03053633313	-8.52979586010265	-71.6601847779208	-8.50937204377906	-71.7133609278816	-5.21412387527116	117.605863097679	
1435000000	-4.89737600539649	124.7943765073	-8.50226940579447	-71.6486818375599	-8.5057863533645	-71.7477114616781	-5.2136216941458	117.49487402669	
1435500000	-4.92389463378725	124.552545297993	-8.50156943296712	-71.8178961289149	-8.50160529379987	-71.8106981531288	-5.21531240242896	117.40400244886	
1436000000	-4.94047026259359	124.343141568655	-8.49232978845267	-71.8739276937572	-8.50419998958649	-71.7981101926888	-5.19892860599593	117.399702817467	
1436500000	-4.95905342048007	124.234623952837	-8.49008596601344	-71.7921115125739	-8.49610537779065	-71.8309387002033	-5.20102672539806	117.241999211976	
1437000000	-4.97535619989149	123.921815773814	-8.48638810729458	-71.9000580474988	-8.46710745094809	-71.9700736161071	-5.21108037032896	117.225327093398	
1437500000	-4.98651954054607	123.730544672323	-8.5005308283508	-71.9996046126708	-8.48624503573739	-71.9626894826471	-5.21484405739639	117.121345324282	
1438000000	-5.01447408340834	123.540915932372	-8.48205918693454	-72.1262874067881	-8.48058748610436	-71.956229942704	-5.21664535276267	117.112129929422	
1438500000	-5.01052484061182	123.230480673562	-8.47358201548463	-72.0712881990076	-8.45910962352952	-72.1023784385781	-5.21062923988321	116.925860970376	
1439000000	-5.02781598823304	122.953100991062	-8.46864021224133	-72.1145880342477	-8.46170102076806	-72.2830143750574	-5.21272985990921	116.791359577806	
1439500000	-5.02989415328349	122.696980011985	-8.46488408379923	-72.1187363973467	-8.46520930114056	-72.2077963585188	-5.22084738245686	116.789187433928	
1440000000	-5.05877732046739	122.30106036558	-8.44845682445558	-72.3535671834009	-8.44327267519562	-72.23854985842	-5.20972266040089	116.763735991426	
1440500000	-5.07303782469428	122.261561132549	-8.44656092074595	-72.3291324259257	-8.44416626301945	-72.3549497253543	-5.21741145233751	116.640146967205	
1441000000	-5.09652218695917	122.119375045469	-8.45142581512871	-72.4348851856479	-8.45715870106129	-72.2693240663792	-5.21955490233681	116.589629237844	
1441500000	-5.10141627664213	121.797765764918	-8.45147676687792	-72.3351819155489	-8.44270302259447	-72.4789340747563	-5.22673098147892	116.549765005919	
1442000000	-5.09933150809848	121.499572631384	-8.42747870029808	-72.4590828389737	-8.43761502296721	-72.4309175339114	-5.22009506045222	116.448640944258	
1442500000	-5.12659194299647	121.237905431718	-8.4575158840815	-72.5693019467158	-8.44020677525079	-72.5286660798679	-5.23418435383762	116.414144368272	
1443000000	-5.13228409212199	121.012380364059	-8.42840132542682	-72.5727510582586	-8.42784645447467	-72.503025654746	-5.22453843518771	116.361968948393	
1443500000	-5.1376603323895	120.738205592826	-8.43652967120166	-72.5301423284078	-8.44320539030777	-72.5903405499758	-5.23823247900906	116.306379905732	
1444000000	-5.15115612633051	120.508404253283	-8.41568376426965	-72.5970840857031	-8.41287415200391	-72.6460002787961	-5.22469524121261	116.226380854735	
1444500000	-5.17032293390793	120.274540595701	-8.42890815386037	-72.6666522958716	-8.41680736160218	-72.7677225238809	-5.22552233343286	116.116573364136	
1445000000	-5.17216847723929	120.070828624166	-8.41419568090428	-72.7112186565765	-8.40813012337535	-72.8015662502604	-5.23089193444642	116.0206120505	
1445500000	-5.18700440961576	119.787930182661	-8.40929947807276	-72.7772660166275	-8.41428533131882	-72.8109340333816	-5.22454058398201	116.099214973963	
1446000000	-5.18143881543056	119.473094316472	-8.40505768409471	-72.8593832461509	-8.39404847489419	-72.7595256000489	-5.21801370498099	115.924247902022	
1446500000	-5.18303707310212	119.277960050539	-8.39695717236532	-72.8654831562503	-8.40461772557278	-72.8024884604209	-5.23152542005152	115.941598940436	
1447000000	-5.20136942025106	119.010026124556	-8.40743602230521	-72.9304667647026	-8.40194133416267	-72.9100764908636	-5.21940998966348	115.86517444716	
1447500000	-5.19426403471115	118.787940332841	-8.39259535492183	-72.9882469820459	-8.39668945222642	-72.9060337534845	-5.22569726922002	115.806184498711	
1448000000	-5.20704578881182	118.547922145592	-8.42148261298159	-73.1131173947643	-8.39407026222616	-73.0178024735502	-5.2236592397807	115.778974268093	
1448500000	-5.20204483758665	118.359651274403	-8.39449887657906	-73.0556634893757	-8.39414418504124	-73.0900812198888	-5.23729218677945	115.750691695284	
1449000000	-5.21854531662235	118.12522228052	-8.39813097849274	-73.1086938601459	-8.39292048727395	-73.1565533807561	-5.23189601676872	115.731753151311	
1449500000	-5.20583271737613	117.933204142429	-8.38418821644728	-73.0915580367035	-8.3856230573954	-73.1859147245065	-5.22883115739511	115.74313231186	
1450000000	-5.20748512321312	117.680331166759	-8.39219180512531	-73.1014596670164	-8.39983723570271	-73.2360917425947	-5.24750870126423	115.631877059091	
1450500000	-5.2216547232729	117.369871132831	-8.39248522842157	-73.3451736067589	-8.38961683486128	-73.2939760066812	-5.24658875720936	115.597498875195	
1451000000	-5.21483115479714	117.174122081747	-8.39707168453352	-73.193455488552	-8.38211656977837	-73.3050750863028	-5.23419129977992	115.68328781533	
1451500000	-5.21131587934847	117.028249694299	-8.3819544687469	-73.3876163580735	-8.39092367111319	-73.3491575487509	-5.24106585410968	115.471658991365	
1452000000	-5.19687759748595	116.740196657179	-8.38406472209323	-73.3754289215841	-8.38404087174036	-73.296395541462	-5.24368057872147	115.566881139477	
1452500000	-5.19686613840955	116.544959445145	-8.37508352371655	-73.3364018894256	-8.37960395565723	-73.4203352884243	-5.25079032518129	115.500211655873	
1453000000	-5.20314052133601	116.50916840486	-8.38316590547841	-73.3960609059006	-8.36646543120507	-73.4169379305664	-5.25210945739782	115.408986478212	
1453500000	-5.20945846495589	116.143682575046	-8.39639770958646	-73.4367020174703	-8.36622956973708	-73.4376526307591	-5.26236545725833	115.456772767003	
1454000000	-5.20750894973131	116.081581895875	-8.37631307434778	-73.487531131235	-8.39017562687809	-73.4465463871032	-5.25129653309429	115.431289056423	
1454500000	-5.20170152160095	115.880886070211	-8.38279866052378	-73.50156230838	-8.37965889619571	-73.4886780504593	-5.26665136960833	115.435884979663	
1455000000	-5.2059995731341	115.582651240517	-8.37492938615696	-73.5391360396539	-8.36887685075834	-73.5869544493007	-5.26472574838365	115.335688179148	
1455500000	-5.19191584251486	115.5364915541	-8.39189705846702	-73.5417383808227	-8.40218335652671	-73.5321774775386	-5.27442268083937	115.425354035101	
1456000000	-5.18596080830093	115.326331918934	-8.37690300111198	-73.5735896793472	-8.38157421226768	-73.5662502009673	-5.26002044749777	115.331097054165	
1456500000	-5.18408019066667	115.167110624994	-8.37635869437317	-73.6112278329434	-8.37953781071534	-73.5927623197506	-5.28514146584134	115.347529512721	
1457000000	-5.16867743151289	115.105407576037	-8.38878471324623	-73.5910546530547	-8.37248107237882	-73.658505835871	-5.27954783649982	115.233437128586	
1457500000	-5.16519819822567	114.82861814144	-8.37206618717637	-73.6877493604225	-8.36864639603331	-73.6421405454515	-5.28915388891455	115.310344488495	
1458000000	-5.16676275878383	114.709274093038	-8.37517400672948	-73.6295060224258	-8.38205650043869	-73.6990392398294	-5.29887429260419	115.363357546414	
1458500000	-5.14870452030615	114.416544960896	-8.38228975907847	-73.7242620715093	-8.3676845884873	-73.7178756177566	-5.2975162720782	115.333265472527	
1459000000	-5.14287672268325	114.344550749122	-8.36669653099895	-73.6986782027012	-8.36715852831003	-73.7182281874518	-5.29354797729986	115.24563916787	
1459500000	-5.12197133103621	114.25427283453	-8.37102071962755	-73.6525518526719	-8.37251581503401	-73.7247427018873	-5.30244495319688	115.230536471956	
1460000000	-5.11334222577769	114.124662007335	-8.37503748140228	-73.7608167422432	-8.37268688200799	-73.7436185544577	-5.31203739085875	115.257922552567	
1460500000	-5.13118682800375	113.974668963856	-8.37523596832837	-73.773524162451	-8.36706796356205	-73.6867203517215	-5.31527823767155	115.163085187783	
1461000000	-5.11078309256513	113.894122479369	-8.36799876479903	-73.8374421916451	-8.37235524896825	-73.7903860403761	-5.32317956325975	115.210736561061	
1461500000	-5.10004480141533	113.81458101894	-8.37096347753051	-73.747055023404	-8.36327848058661	-73.7458045628896	-5.32163122276539	115.214345657701	
1462000000	-5.07306469398562	113.662689990477	-8.36470710466475	-73.7263378659561	-8.37557894157211	-73.7627685536927	-5.32267973377517	115.204107641674	
1462500000	-5.0709200024048	113.500896742401	-8.37416877479346	-73.8102040529672	-8.37459154716837	-73.8695416475739	-5.35407018823299	115.245579476344	
1463000000	-5.06416995887604	113.465111494844	-8.36873995071129	-73.8639890991602	-8.35620407503684	-73.8208508967111	-5.35429714750683	115.222598721025	
1463500000	-5.03911934466122	113.438768973466	-8.36514240192036	-73.8147176480921	-8.3711522276829	-73.7721965626968	-5.35555346707063	115.218752837266	
1464000000	-5.03555436597646	113.379960065948	-8.36680311943707	-73.7902947170337	-8.37056563401178	-73.7934542943158	-5.36111905140154	115.237741503527	
1464500000	-5.019140095522	113.196609036795	-8.36390738703517	-73.8560656804442	-8.37478002170704	-73.7167347509339	-5.36516897578241	115.322429294949	
1465000000	-5.00742149686385	113.117724979172	-8.37345377902685	-73.7941315175154	-8.35807986603878	-73.8112157074924	-5.37998949768564	115.237660711958	
1465500000	-5.00102684619637	113.069358792568	-8.36437930610017	-73.86908738011	-8.3636036705785	-73.7499299788392	-5.37215123446267	115.236597526013	
1466000000	-4.98464799875981	113.030613595999	-8.36690810066219	-73.8752453121355	-8.36320047291094	-73.8202926667276	-5.38770998171442	115.299595342541	
1466500000	-4.97431797367972	113.0566870923	-8.35685635460817	-73.827481727376	-8.36307127298115	-73.7793991399326	-5.39229159229629	115.245786593485	
1467000000	-4.95930617683094	113.009780275786	-8.36605994870185	-73.906547911678	-8.35674244155259	-73.9014845611037	-5.41662366033222	115.206138770859	
1467500000	-4.95470908566157	112.877361879045	-8.36524368727739	-73.8253784852579	-8.35161717000885	-73.7696735010347	-5.40189558556736	115.23703424453	
1468000000	-4.93144726929457	112.842154817567	-8.35358597256089	-73.8189597991417	-8.36138056137716	-73.7537766571258	-5.4272198201191	115.211045710431	
1468500000	-4.9214375093043	112.865919850712	-8.37093412937784	-73.8594155351406	-8.34888842510443	-73.8002277400125	-5.4397680272716	115.251175452921	
1469000000	-4.91439071003082	112.830483406402	-8.36744928575562	-73.8277396499011	-8.35177765255918	-73.7236257384431	-5.42915001866086	115.329528660283	
1469500000	-4.89039743789285	112.783468226222	-8.35890177777176	-73.7971838805954	-8.36283825254266	-73.7780150976761	-5.44107224950324	115.281473822654	
1470000000	-4.88137392269944	112.880704659563	-8.35726153158272	-73.7677059567242	-8.35948517728578	-73.7945109662261	-5.46174693829186	115.29398944278	
1470500000	-4.88908471105811	112.784826927332	-8.3499732302041	-73.7382447992769	-8.34164975200829	-73.7030456421816	-5.47986801869632	115.266835850696	
1471000000	-4.85399296980239	112.846259844186	-8.34972932121108	-73.7493946262971	-8.35054420042328	-73.7477914389969	-5.47267727267185	115.314627448657	
1471500000	-4.83483191823808	112.787252047737	-8.34433435539983	-73.8035478020018	-8.35087109908415	-73.749607541687	-5.48802813809935	115.328942198128	
1472000000	-4.81967717828808	112.740516101213	-8.34360989024751	-73.6907013474087	-8.34874609872511	-73.6960223098351	-5.49056150002571	115.345263238239	
1472500000	-4.82421504759833	112.797146446932	-8.35371277131433	-73.7203172586026	-8.34492306762747	-73.7240523767675	-5.51713057137956	115.295801918386	
1473000000	-4.79221175832317	112.845721962993	-8.33879891142581	-73.6737245886524	-8.34255893452377	-73.6800727849173	-5.51354554320039	115.312921949685	
1473500000	-4.78738842776445	112.783943759089	-8.34134780517559	-73.723324737059	-8.34512701802654	-73.6969088198442	-5.52982773134501	115.357807694152	
1474000000	-4.76452636760946	112.932354653379	-8.33058581437643	-73.6309427448299	-8.31778703713241	-73.7118063219451	-5.52526831184472	115.419041232883	
1474500000	-4.74099203722588	112.929889320685	-8.33711152958614	-73.6426600410083	-8.32924876352972	-73.5985457106111	-5.54953385394563	115.382676967367	
1475000000	-4.74351098140908	112.984505318309	-8.33393594728346	-73.6098260058533	-8.33838213918573	-73.5836977236265	-5.56006703957591	115.486403638087	
1475500000	-4.72300280209027	112.952423922944	-8.33042611094177	-73.6538257983406	-8.32581905492772	-73.5806587253891	-5.56796070726076	115.399350207426	
1476000000	-4.71265900436656	113.055936766024	-8.32038773475204	-73.6038219115401	-8.33048264444375	-73.6691449366601	-5.57482455231283	115.362573508731	
1476500000	-4.6906057332077	113.146548568745	-8.32143469688621	-73.5028012120538	-8.31421409308319	-73.5772930391072	-5.59662640082423	115.401512077902	
1477000000	-4.69173247655007	113.091471931098	-8.31223107369471	-73.5552539456752	-8.31200329472743	-73.5534595486761	-5.6047926209216	115.460379193801	
1477500000	-4.66392584074465	113.276929781612	-8.30151476863901	-73.502958599304	-8.30782360464707	-73.4936625578351	-5.62087611710866	115.361709144759	
1478000000	-4.65692785866748	113.340205604686	-8.31554441426946	-73.5146679854866	-8.31683167546182	-73.4184612194543	-5.62479868967585	115.395512023517	
1478500000	-4.63529680288551	113.459844588031	-8.30280528620987	-73.4279122627958	-8.31382199735396	-73.4779735718221	-5.65120162285281	115.402598552228	
1479000000	-4.61393536726185	113.425482946752	-8.29496618713275	-73.4535148147808	-8.29943357042295	-73.4675897612592	-5.66947190747515	115.332900025757	
1479500000	-4.61867211224928	113.562834143101	-8.2983032324288	-73.3510810142961	-8.28560501293236	-73.3481656825448	-5.66485675824412	115.363781622233	
1480000000	-4.6026173692627	113.631361321339	-8.2910008201693	-73.3578097478187	-8.29474662457777	-73.458498721368	-5.68203416887991	115.345457459556	
1480500000	-4.59468245276269	113.725738259424	-8.29373494603093	-73.3932749539143	-8.29356819651243	-73.3784750866237	-5.69441511705066	115.524251956733	
1481000000	-4.5850025176534	113.820164361812	-8.27993636284549	-73.3735910663531	-8.27200219910591	-73.2984058424131	-5.69942988401442	115.413832802922	
1481500000	-4.56876636826555	113.955766322156	-8.26441283079105	-73.2279605936319	-8.27625066208726	-73.3319861536971	-5.73600398367071	115.358130235596	
1482000000	-4.54977190789394	113.972650243818	-8.27463262878367	-73.3373827349307	-8.27158475037976	-73.28364990334	-5.7357700515078	115.415819044062	
1482500000	-4.53181102055431	114.204756342456	-8.2750388185369	-73.2482956377479	-8.25866597796343	-73.2467528842821	-5.74567670812155	115.408240935165	
1483000000	-4.52466080857592	114.218464108586	-8.25188672080834	-73.200589579236	-8.25281510156013	-73.2611684134343	-5.75134661328675	115.40760767726	
1483500000	-4.50847120458059	114.393691610612	-8.25159070003939	-73.1664337288139	-8.24176649961175	-73.2034601255602	-5.76069796036906	115.47231464063	
1484000000	-4.49759939988603	114.488722750331	-8.24842675333411	-73.1070961968275	-8.24616726367441	-73.1280397913424	-5.79262368157645	115.469409371174	
1484500000	-4.48448050939147	114.577243989597	-8.24915751556964	-73.2012724670518	-8.24078447412993	-73.1328661959566	-5.78654251512446	115.413537782547	
1485000000	-4.4769545438482	114.7448630253	-8.24144486822536	-73.0977551456413	-8.22725412060661	-73.0468908153772	-5.7911829655549	115.453760906861	
1485500000	-4.46532152861322	114.792996252817	-8.23081273894633	-73.0333705716649	-8.22825931495395	-73.0399184863309	-5.8203254334452	115.453516851915	
1486000000	-4.45593754576285	114.974261376447	-8.22912953016322	-73.0616585553084	-8.22475315050221	-73.0342777412081	-5.8336514455451	115.435208279814	
1486500000	-4.44304944662735	115.079634250636	-8.19662669574599	-72.9561479336312	-8.20603280626634	-72.9915926347728	-5.83368385110692	115.323568962772	
1487000000	-4.43538760225283	115.190745319831	-8.19971271604799	-72.9524219869286	-8.20875185419621	-72.9325370052846	-5.86688800060373	115.43878681266	
1487500000	-4.4147309660491	115.450001328049	-8.201008944772	-72.9378095523121	-8.20189464087324	-72.9274449620554	-5.86289339551363	115.343882411433	
1488000000	-4.41703446351338	115.509278026723	-8.19825446043026	-72.9448686868542	-8.20141229895174	-72.887927006414	-5.8924627279237	115.346080295012	
1488500000	-4.40314838374656	115.65575600166	-8.18882266410303	-72.8577668866215	-8.17895380208929	-72.8202563068844	-5.88161140197256	115.315965077027	
1489000000	-4.38631366693054	115.741747563328	-8.17899497807047	-72.810234045146	-8.18334587202945	-72.7893934851763	-5.89315516769791	115.452631229923	
1489500000	-4.37851855391908	115.995136378221	-8.17639953588617	-72.7696793745244	-8.16771928504004	-72.7546401324276	-5.91133287528926	115.399697168636	
1490000000	-4.36439767745396	116.115930648432	-8.16386457190797	-72.7516839472497	-8.1540302352507	-72.748872584288	-5.9219581947783	115.26000202131	
1490500000	-4.36362330128713	116.135809126133	-8.15166314416593	-72.7380329356456	-8.1361861850304	-72.7833045192918	-5.93753125519829	115.222937982321	
1491000000	-4.34967049352287	116.43477505963	-8.14090265475628	-72.6683660182475	-8.14157618143681	-72.7251988257067	-5.94689138042411	115.278798177777	
1491500000	-4.32909073829624	116.557210705692	-8.11802490774894	-72.6685498449336	-8.12500800746981	-72.7725157512202	-5.95440654030054	115.233436504413	
1492000000	-4.34055128247521	116.781293358807	-8.11955211065496	-72.6377805604697	-8.13090241874422	-72.6484006808472	-5.97024503452221	115.226727247394	
1492500000	-4.33376450909397	116.878551718871	-8.11785306326779	-72.5545708297157	-8.10455892113865	-72.5568785988318	-5.98746243090453	115.166314644394	
1493000000	-4.31717839030656	117.026822735493	-8.09992628423263	-72.6265416768557	-8.10260518062909	-72.6107451029619	-5.9876810221308	115.158441240968	
1493500000	-4.30450867505457	117.23761079097	-8.09552630965293	-72.4933460669807	-8.09631302109235	-72.5012436682858	-6.01128520441414	115.226251884022	
1494000000	-4.28998826337128	117.416850898389	-8.08131235554559	-72.4523887571745	-8.08461594682942	-72.4526267074547	-6.00874351786178	115.083188448278	
1494500000	-4.28706235468814	117.483582899763	-8.07498502579047	-72.5686262487033	-8.07107120264553	-72.4700380913144	-6.0328683758167	115.075631496779	
1495000000	-4.28561357510126	117.735643510172	-8.06780048973321	-72.4532882679721	-8.05880927776929	-72.5537977847865	-6.04209483496548	115.013937003389	
1495500000	-4.28301119540811	117.93730681917	-8.06482760115345	-72.3912542826035	-8.04187629796944	-72.3992850283465	-6.04599614064675	115.028116833595	
1496000000	-4.27614412953744	118.089232072487	-8.0369433869526	-72.4713035313604	-8.03399158492159	-72.4431133308768	-6.07253894708956	114.983023204357	
1496500000	-4.27264448641268	118.191203252569	-8.03124882162553	-72.3361834016026	-8.03051039354051	-72.3910475713442	-6.08374070845495	114.854590076347	
1497000000	-4.25450940293481	118.382371666433	-8.01592820127072	-72.3419928495237	-8.00535104156053	-72.3591283168886	-6.08837344891482	114.929454927501	
1497500000	-4.24863750528625	118.508944109945	-7.99691587171703	-72.3690886379587	-8.00646976841736	-72.3005246780334	-6.08929525853364	114.786783566766	
1498000000	-4.24752024498289	118.761554296265	-7.98162881725981	-72.3964000874261	-7.98200314658516	-72.3236269414154	-6.09682825854301	114.743376434489	
1498500000	-4.25034901782986	118.888203332094	-7.98794887985663	-72.3328428495754	-7.98917008533946	-72.2624296028296	-6.13499334607344	114.758373987468	
1499000000	-4.23726974259276	119.026117993682	-7.97790108940868	-72.2686734936467	-7.96032349184133	-72.2676119602068	-6.13082279565919	114.758763103301	
1499500000	-4.2310330353267	119.302677932247	-7.95367079073982	-72.2402403118067	-7.95834681258513	-72.2443026146952	-6.14847435953864	114.637776321802	
1500000000	-4.23449121122984	119.385236993388	-7.93406897456633	-72.1824428655117	-7.94236282294316	-72.2582539408213	-6.15222002746799	114.569487282705	
1500500000	-4.23167249067497	119.5099187165	-7.93127939237204	-72.2584405159814	-7.92682274213964	-72.1426395751072	-6.15218708865744	114.66292238982	
1501000000	-4.23029592692737	119.698087386542	-7.91246538034117	-72.2798756768065	-7.89888562779388	-72.2867138314003	-6.17312741237741	114.433277085714	
1501500000	-4.22457702871245	119.876598099404	-7.90329773448939	-72.1867718234025	-7.89256190204162	-72.2267482650464	-6.17490401921605	114.503610658308	
1502000000	-4.22842099635014	120.057827948152	-7.88429891901379	-72.0772707600862	-7.88380278259159	-72.1518293912487	-6.1661365054567	114.414194912851	
1502500000	-4.21220346803207	120.272653166581	-7.87444744948634	-72.1505708887811	-7.8708326956866	-72.1435997294981	-6.18112929389944	114.343786379193	
1503000000	-4.22013421196602	120.331348336423	-7.86303713546027	-72.1553319353427	-7.86727038260863	-72.0262405517334	-6.19131033157445	114.322477974543	
1503500000	-4.2250579883748	120.565989706298	-7.84385505916514	-72.0606401704184	-7.84570058552583	-72.1968882608439	-6.21135718793411	114.284934864187	
1504000000	-4.22317772182672	120.701752376317	-7.82381343747518	-72.1224479869553	-7.81718248015745	-72.1142341988384	-6.21231923531704	114.227468827151	
1504500000	-4.21823523850994	120.79114969642	-7.81901277919079	-72.0631651618235	-7.80487929475218	-72.1219202783993	-6.22526084741007	114.184162919902	
1505000000	-4.21443902526517	121.00608306281	-7.79858672117474	-72.1840215456895	-7.795094221777	-72.0984843264483	-6.21707892232227	114.064660566754	
1505500000	-4.22785163546804	121.233079765801	-7.79789327241689	-72.109601645531	-7.79325011946908	-72.0131093192705	-6.24054092889554	113.995357874179	
1506000000	-4.22446314150213	121.359056911304	-7.77532146453147	-72.13552470028	-7.77599860678959	-71.9699106861691	-6.24133114385952	113.922349866748	
1506500000	-4.23749404968601	121.480830945254	-7.76235410797434	-72.1223257659977	-7.7662116499679	-72.0422222794036	-6.24196766330964	113.855147392411	
1507000000	-4.24427575530047	121.588718122762	-7.7343083158029	-72.1016374125464	-7.74457780854504	-72.1136014004105	-6.25694639640552	113.786688283578	
1507500000	-4.22912513116373	121.808040299412	-7.73623884539171	-72.0866976660711	-7.73301351735798	-71.9593425560794	-6.27754562808095	113.732034112917	
1508000000	-4.239487273235	121.926001366511	-7.7168309433327	-72.0356685017322	-7.71751521361774	-72.04132060508	-6.26813047731086	113.752248844092	
1508500000	-4.24663510030426	122.092644446015	-7.67877956775465	-72.0877660362173	-7.69335635370947	-72.1103439511718	-6.27141009719598	113.626578126355	
1509000000	-4.24414913996117	122.279418019422	-7.6758080078901	-71.9858466008056	-7.67690703035689	-71.9994819040986	-6.26900462507896	113.566483606482	
1509500000	-4.26587698756301	122.402581637329	-7.66807089428106	-72.0788670373671	-7.66670523755184	-72.169208109711	-6.28314875908911	113.406614585612	
1510000000	-4.26412875583261	122.57447509297	-7.65223296070412	-72.1087419250594	-7.63846997549398	-71.9966141750536	-6.28237662356705	113.413587549921	
1510500000	-4.25876671547104	122.684589136851	-7.63224130813869	-72.0905994444729	-7.62408817175602	-72.0962101412547	-6.29444962470896	113.235118501871	
1511000000	-4.27045402431972	122.866965977893	-7.62619593464252	-72.0862710575889	-7.60648809258545	-71.9461361049267	-6.28907778585175	113.2510821503	
1511500000	-4.27564603966237	122.913831510567	-7.62145613227003	-72.0774473811588	-7.58663305254801	-72.1512028293329	-6.28695373230187	113.115308536171	
1512000000	-4.2895974764775	123.040438231498	-7.58344263292697	-72.1863974460897	-7.57854567215355	-72.2183355655265	-6.30392374313187	112.991490228861	
1512500000	-4.29506129396692	123.151680506438	-7.56528279874763	-72.1165048633566	-7.56237502480862	-72.1374226678761	-6.30424608911499	112.939683537897	
1513000000	-4.29334235920284	123.269308579757	-7.5521277633217	-72.1536859735599	-7.54625068139941	-72.1734973188672	-6.30198262618691	112.821091208893	
1513500000	-4.32959934176986	123.449233011159	-7.53361960708282	-72.1945611107751	-7.54183417894198	-72.1806614151832	-6.29703047252316	112.779314614774	
1514000000	-4.32718663106964	123.507689229728	-7.52004054123763	-72.2618398333373	-7.49495598865746	-72.2655021487885	-6.31385604440501	112.664788303784	
1514500000	-4.32619978006444	123.563250835869	-7.48046935500654	-72.2159098020172	-7.49525110026409	-72.2311623967707	-6.31520053877929	112.618181494159	
1515000000	-4.33850666169459	123.610977885269	-7.49435213679127	-72.3074794641442	-7.47046700909933	-72.320613711025	-6.3250759636519	112.490717923544	
1515500000	-4.3628634503878	123.745681922018	-7.47691595747902	-72.3058179518043	-7.47016207990412	-72.391587516136	-6.3236165294567	112.445159456577	
1516000000	-4.37006268664602	123.860005028478	-7.45933024168314	-72.414786302927	-7.44194672595625	-72.3317115091153	-6.33168223729417	112.342479032726	
1516500000	-4.3966226326097	124.002532031383	-7.44297483455743	-72.3362332161144	-7.43449684690061	-72.3112427047139	-6.33098340985114	112.162912881781	
1517000000	-4.40743538302428	124.098172767918	-7.41197524488967	-72.3351510417774	-7.41992086786287	-72.3253129790694	-6.33542225957489	112.181323024189	
1517500000	-4.42724726402243	124.126826799289	-7.39793777965955	-72.4994367710113	-7.39366335180585	-72.5128844913016	-6.33771803577732	112.03139896071	
1518000000	-4.43726490102917	124.243630701229	-7.38752684052147	-72.424333846257	-7.40067999904972	-72.5145134880941	-6.33332984970127	112.009430270674	
1518500000	-4.44370139118902	124.212267753217	-7.35740548408679	-72.6041656211431	-7.36647680551469	-72.5650462521755	-6.31732524103386	111.89200908943	
1519000000	-4.44859901124636	124.415155956439	-7.35516548586826	-72.6286827012965	-7.34541300297165	-72.4987511701265	-6.34984579539362	111.846269275493	
1519500000	-4.48131835126464	124.434423935887	-7.334810087634	-72.6297448891547	-7.32776277621494	-72.4648636787434	-6.32553013666781	111.754966420995	
1520000000	-4.48356287556865	124.541222559028	-7.33740903206606	-72.696792921087	-7.32384924063282	-72.5578623003211	-6.33995940858371	111.626033074033	
1520500000	-4.506270341779	124.589352978638	-7.30132325998249	-72.6910435974833	-7.29875895006577	-72.7043099623512	-6.34312288659901	111.475146396065	
1521000000	-4.52451355787844	124.577514329988	-7.2748220849752	-72.7261019921866	-7.29997939643601	-72.8237133632054	-6.33774839850311	111.459774917441	
1521500000	-4.55590439542667	124.785988834688	-7.2762035649343	-72.7611119697879	-7.27101298482812	-72.7628076140502	-6.33130145288697	111.278000279316	
1522000000	-4.58936209735267	124.6930443058	-7.25213250478497	-72.835734020953	-7.24752864577401	-72.8707006675971	-6.3356721353311	111.204073701759	
1522500000	-4.58573815468769	124.634116794737	-7.23556902403886	-72.9459897209957	-7.23288055404784	-72.924665554914	-6.34172417468195	111.095039249538	
1523000000	-4.62726489487725	124.717332003806	-7.24383937596398	-72.9829479205174	-7.21359650186957	-72.9195651137444	-6.33731119970594	110.989851489836	
1523500000	-4.64316810467934	124.789823201017	-7.21089005372787	-72.9941122405306	-7.19746934622131	-73.0082931763495	-6.32181213718818	110.948927303338	
1524000000	-4.66118415483252	124.793336219856	-7.19736381010072	-73.133078130454	-7.19907406499783	-73.0453402540588	-6.33841589207199	110.801195350579	
1524500000	-4.68486390803913	124.782199091049	-7.17102374105071	-73.0092881464328	-7.17068886656852	-73.0795378145029	-6.32758598561605	110.744784410337	
1525000000	-4.70945459775958	124.727758588528	-7.16276998705507	-73.2186092894069	-7.15354127339425	-73.249504739243	-6.34528075960657	110.62630682557	
1525500000	-4.7288611290296	124.919089026525	-7.14658690074695	-73.2627177170516	-7.14918970158714	-73.3202528444376	-6.32907543903825	110.547490346872	
1526000000	-4.75283979593779	124.835652643298	-7.1244691708314	-73.24370648955	-7.13255930849069	-73.3109415332462	-6.34198074530457	110.428861498501	
1526500000	-4.78267048945613	124.751478704327	-7.11243827273359	-73.4223209411461	-7.1089611739634	-73.3938669392907	-6.32352225021826	110.289325332705	
1527000000	-4.79923842091469	124.773707593713	-7.09364795570457	-73.4174768459009	-7.09778607884361	-73.4813444267508	-6.32950100632915	110.157383407918	
1527500000	-4.84423046596221	124.773769940015	-7.08707123365312	-73.5182808451156	-7.09667255608342	-73.463341682994	-6.33577682293015	110.046397988777	
1528000000	-4.87586228111662	124.644958546429	-7.07670629807138	-73.6259243019594	-7.05911663749589	-73.6112946243316	-6.33805304936431	110.032052639256	
1528500000	-4.89940331577256	124.66914533707	-7.05563909838536	-73.7069247006797	-7.06517874769202	-73.6682602144414	-6.33923153713413	109.969420099034	
1529000000	-4.92974324910738	124.704566061043	-7.04655028913714	-73.6081861954457	-7.04040936677407	-73.7061048479031	-6.33666047319437	109.818219082467	
1529500000	-4.94862100752061	124.531228144839	-7.0222945386846	-73.8186157309844	-7.02362723294468	-73.8642079381543	-6.33383665550035	109.677505911911	
1530000000	-4.97889977337546	124.517780364421	-6.9986776293891	-73.9286390216289	-7.0198771373358	-73.8910242915842	-6.32416044846485	109.579091406004	
1530500000	-5.0231236255354	124.554865466325	-7.02160475591018	-73.9780358633896	-6.99609367783262	-74.0237935450377	-6.32867840285198	109.494210890419	
1531000000	-5.05967101316923	124.404446480535	-7.00091270953343	-74.0248002683202	-7.00297238873133	-74.0617313989446	-6.34251346533936	109.469192709867	
1531500000	-5.08664362858367	124.438185505853	-6.97788836406921	-74.1835612264084	-6.9814968925133	-74.0305492025839	-6.33500293546218	109.357459107213	
1532000000	-5.10566356833823	124.298045940001	-6.96380089220716	-74.1461119398788	-6.96152202620712	-74.240050433447	-6.33117702958726	109.296685623163	
1532500000	-5.13851666402621	124.254569165359	-6.9580763281856	-74.2744163771749	-6.95842093519033	-74.2461361595871	-6.35623766519339	109.190847421542	
1533000000	-5.17491624581544	124.125234193093	-6.93673037678913	-74.442433173879	-6.95547377466998	-74.4417846933863	-6.34621835665283	109.079722593133	
1533500000	-5.19833052913493	124.050567778462	-6.93262348241566	-74.4054077101287	-6.92905382168493	-74.4602298456416	-6.35057195346749	108.977176358633	
1534000000	-5.23811484055698	123.906690167141	-6.91030662521118	-74.5150358305442	-6.90188747835827	-74.5341104203681	-6.32564024419665	108.943263893074	
1534500000	-5.27500594463334	123.817545257587	-6.90501564508988	-74.5792572019387	-6.89756786771406	-74.6218932745909	-6.32933613161602	108.839587725273	
1535000000	-5.31848735108437	123.771797509275	-6.89826089153674	-74.5793003638609	-6.90186777728648	-74.7427987759349	-6.34748559305186	108.773110414115	
1535500000	-5.34349953190975	123.630906095125	-6.87970771235612	-74.7909364318438	-6.86909005774717	-74.7614442883746	-6.33223681990046	108.684772121841	
1536000000	-5.38759087224478	123.535437860622	-6.86374979474192	-74.8887965014219	-6.87536911585539	-74.8909453340752	-6.34490810036152	108.461847914569	
1536500000	-5.42327831552284	123.27173943412	-6.8693176527385	-75.0773615659214	-6.85953747668675	-74.9949959362997	-6.35784159633136	108.388869170261	
1537000000	-5.47459923140942	123.232607025479	-6.85886825285718	-75.0896754213819	-6.86969579783107	-75.1395691814739	-6.34771200939606	108.363677857927	
1537500000	-5.50430475670765	123.012089593737	-6.8489992948555	-75.153655004768	-6.84881057419526	-75.163950268589	-6.34947268050732	108.279455255897	
1538000000	-5.53156439332974	122.906018835693	-6.83050814361037	-75.2504724639296	-6.82907576172735	-75.2641366434189	-6.33272899876609	108.131197453298	
1538500000	-5.56973920412674	122.755564459765	-6.83415650913584	-75.3625742809937	-6.82566374191729	-75.3810333789363	-6.37530449870996	108.110248149742	
1539000000	-5.58003226653689	122.558239859122	-6.81875742000341	-75.449302135971	-6.81854861267058	-75.4288973388955	-6.35907304537572	107.979436000747	
1539500000	-5.65055746722803	122.288797989931	-6.82411275031449	-75.5816369588713	-6.81153565760227	-75.6285477118764	-6.37386262322444	107.982871978919	
1540000000	-5.67925154760106	122.103769129514	-6.79344910471946	-75.6695250585062	-6.79516705458612	-75.6858346050538	-6.36750562396082	107.786695634444	
1540500000	-5.72391851412537	121.909448750607	-6.78912421969014	-75.7463463908348	-6.79064170420601	-75.7894699826552	-6.36477911334667	107.73551047612	
1541000000	-5.76754003397092	121.757652188602	-6.78787819796858	-75.846074494548	-6.78490659107811	-75.7720287143872	-6.37665085295566	107.707922803256	
1541500000	-5.79180128805468	121.530884521382	-6.78072935203689	-75.9124663502183	-6.76717920369465	-75.8568818746208	-6.37960798673238	107.610770585783	
1542000000	-5.84670870697782	121.397412680862	-6.77888302320408	-75.9844830196278	-6.77651405836349	-76.1282160770576	-6.38953507473222	107.525952611356	
1542500000	-5.89197735408491	121.18538553733	-6.7770028194482	-76.0207339526963	-6.76783117648522	-76.0548386815063	-6.39129124848333	107.500766999793	
1543000000	-5.92985877292408	120.924148795025	-6.77442532398408	-76.1928886298848	-6.75023805084427	-76.1343866102081	-6.40467304651498	107.361436794599	
1543500000	-5.96535603965716	120.685205660897	-6.75390304845144	-76.2203584330448	-6.76511039968673	-76.232442180072	-6.39676031541872	107.375295656178	
1544000000	-6.02792139602452	120.494453179125	-6.7539660972705	-76.3386210499436	-6.74830790366661	-76.4559699388458	-6.41608638334949	107.255721205295	
1544500000	-6.05060670485686	120.186968395982	-6.74683294922431	-76.3753745258518	-6.74061510401798	-76.415621062829	-6.41335621505831	107.208563203239	
1545000000	-6.07846822112786	119.954691404578	-6.74428487308093	-76.4938306302545	-6.73912048608348	-76.5291224694404	-6.43845156671134	107.192561190811	
1545500000	-6.11294076741773	119.686928775557	-6.73018715704903	-76.610036107323	-6.72907049488203	-76.6642913100086	-6.44664286672932	107.13043314228	
1546000000	-6.15087613773512	119.52742939474	-6.72608112588255	-76.6703330839496	-6.72813836733815	-76.7209401849137	-6.4284845258914	107.071043032115	
1546500000	-6.19916019647275	119.23545546711	-6.72714356723414	-76.7182953388662	-6.71932797967379	-76.7966459948335	-6.44972353925186	106.937964343363	
1547000000	-6.21636349782157	118.957790435801	-6.70974029472252	-76.909916283113	-6.71745297862621	-76.8741400232072	-6.46204593779963	106.924685902336	
1547500000	-6.27427593792001	118.520364752495	-6.72614920430047	-76.9591743327042	-6.70928865105961	-76.995098170896	-6.45838898341936	106.839711169911	
1548000000	-6.2943236257403	118.446367026033	-6.71071723199224	-77.0433451832037	-6.71859506395278	-77.044692899612	-6.48464636520191	106.754345025046	
1548500000	-6.32490142612784	117.998163691994	-6.69784157810667	-77.1639294938399	-6.72202661249072	-77.169896085111	-6.47778585042932	106.808302854603	
1549000000	-6.37257461779295	117.787980273713	-6.71573297477154	-77.1665256880651	-6.70447909924264	-77.2455310185206	-6.48552074742182	106.728851381343	
1549500000	-6.41909187113768	117.602958676635	-6.7072745879435	-77.3713349000206	-6.71458910353961	-77.3379092225054	-6.50176145428425	106.629067928863	
1550000000	-6.42898791639143	117.178310690416	-6.69426156583713	-77.3696442266389	-6.70216166574645	-77.3668746702568	-6.51705324900237	106.636942073981	
1550500000	-6.49140487361694	116.837052202027	-6.70125006578032	-77.579837107826	-6.70323811502049	-77.4356979986042	-6.53426591196742	106.658500390498	
1551000000	-6.52014751269059	116.577795252728	-6.70079446705658	-77.560695281428	-6.69631802379984	-77.5598652837822	-6.5411252147316	106.499600731156	
1551500000	-6.54189272174619	116.249038837537	-6.68107854085848	-77.6431427985417	-6.70464392952349	-77.6375574411328	-6.54787399092446	106.369215451102	
1552000000	-6.56612197085647	115.977892912627	-6.69483487256616	-77.7131562799126	-6.69206863413448	-77.628952058884	-6.55346690558143	106.491114440676	
1552500000	-6.6042468902034	115.642881694412	-6.6969638251873	-77.7425985579973	-6.69231137290342	-77.7793480529612	-6.58447047857745	106.442779727041	
1553000000	-6.64527953133688	115.310448213139	-6.69338459291954	-77.8735228033401	-6.68553293008831	-77.7799927772977	-6.58026263157675	106.408985190172	
1553500000	-6.68121179563794	115.026563075152	-6.69920978615597	-77.9892398026233	-6.69393550206451	-77.8781115967523	-6.6190806860312	106.330869345286	
1554000000	-6.69663886457962	114.64881369558	-6.70114347286527	-78.0603050292014	-6.69076553501291	-78.0583050369522	-6.620834789636	106.267506513914	
1554500000	-6.73569660926184	114.273701666903	-6.68593111867854	-78.052541600344	-6.6933793493573	-78.0908793984389	-6.63449157387953	106.309718327725	
1555000000	-6.76330278358081	114.047901943361	-6.69123496456671	-78.1029058533463	-6.68110872626483	-78.1452273079329	-6.64757201716869	106.204261284055	
1555500000	-6.75971970313877	113.685850658601	-6.69422540168797	-78.182559213588	-6.69990514156301	-78.2406449714288	-6.66649989097344	106.26119252261	
1556000000	-6.80392870375963	113.321781360408	-6.68464612013916	-78.3028908922158	-6.68707988234591	-78.2840517920927	-6.6913087978964	106.068540990922	
1556500000	-6.83598399281704	112.973282494901	-6.70781264038369	-78.2773837484373	-6.69170027494157	-78.3370892000289	-6.67361655695961	106.251925380948	
1557000000	-6.85185549440148	112.703749416075	-6.70340436547227	-78.4163235853433	-6.68350557213595	-78.4445391886214	-6.70663478970105	106.166394755327	
1557500000	-6.85652912117286	112.242669113267	-6.68429662752428	-78.4587752837846	-6.69217946676691	-78.42608610714	-6.72281278130141	106.097577297945	
1558000000	-6.87405659821916	111.934258862692	-6.68754896697409	-78.5056310699741	-6.68722814825798	-78.5291570384206	-6.73026191312065	106.105886540536	
1558500000	-6.88520601429769	111.616083323128	-6.70222178052844	-78.5857772011789	-6.69534397376814	-78.5789179192865	-6.76416540964507	106.073706162324	
1559000000	-6.91341932806089	111.343953448035	-6.69702795801364	-78.6385685777877	-6.69095480148308	-78.6733929711074	-6.77866168356167	106.192699856001	
1559500000	-6.93477327623169	110.868695749721	-6.6958893303263	-78.7420487204456	-6.68829281075694	-78.6656877347891	-6.79920664236841	106.077806954504	
1560000000	-6.97139004317293	110.612230607945	-6.70323578694072	-78.6603374637644	-6.70578899648732	-78.7532028878885	-6.83121674256734	106.041408522183	
1560500000	-6.97422224942881	110.277288341304	-6.70501815914259	-78.7760762745638	-6.70381931183631	-78.8032391915209	-6.82707200041816	106.106771816394	
1561000000	-6.97831493991001	110.048411016551	-6.70536943377961	-78.826957898875	-6.70127963348144	-78.8206237918955	-6.84251943855772	106.150745755291	
1561500000	-6.99193732746337	109.598120387941	-6.72046095732682	-78.8940298219373	-6.69628761666735	-78.8877535419756	-6.86816006251429	106.018792385543	
1562000000	-7.00769898476725	109.341080624806	-6.7029353280355	-78.9272613072558	-6.70509893367531	-78.926709862082	-6.88923038597255	106.072511978533	
1562500000	-6.99926657108889	109.044629622399	-6.69867068644343	-78.9738770244741	-6.71496346022825	-78.9670350989859	-6.91531353972395	106.106440968189	
1563000000	-7.02826239682165	108.707428361691	-6.70857256596051	-79.08000278064	-6.70613295509434	-79.0275710075768	-6.91977499936491	106.042234042435	
1563500000	-7.03036011278747	108.315540977242	-6.70466001003632	-79.1038404809196	-6.69916808194897	-79.0855893090509	-6.95544102807138	105.972674967043	
1564000000	-7.03385294716265	108.056495054777	-6.70933210209574	-79.0750454610259	-6.71171048520181	-79.1210538740452	-6.97107534199659	106.196029544588	
1564500000	-7.04513854986319	107.726280711426	-6.70118777990196	-79.1348857771802	-6.70282231832225	-79.1605387062418	-6.99104790082522	106.008331613617	
1565000000	-7.03615354446198	107.417274367937	-6.71784074501981	-79.1687184256445	-6.7151711841668	-79.1327000861214	-7.0167790837093	106.087472799714	
1565500000	-7.03988372546773	107.156779284582	-6.72090056016859	-79.2235903537307	-6.71580255548529	-79.2370621990089	-7.03988927076257	106.065740811332	
1566000000	-7.03966955897777	106.858258782984	-6.71134575227165	-79.2534964291954	-6.71777345114329	-79.2383815215976	-7.06102438363317	106.100639914716	
1566500000	-7.04022160305199	106.434840874218	-6.71801390529445	-79.2713444470354	-6.71473538583703	-79.1789619350185	-7.08931780797761	106.051708437216	
1567000000	-7.03786104285736	106.162622254853	-6.71289137391411	-79.3488828622127	-6.71602373728193	-79.3022185097963	-7.10022563925583	106.089554920464	
1567500000	-7.04480998007357	105.940203673751	-6.71970459749341	-79.362376646713	-6.72102733679432	-79.2717894365831	-7.13148513627617	106.101405982302	
1568000000	-7.02080013133262	105.699364385827	-6.71190894138463	-79.3498476980651	-6.71592572630409	-79.3405271539681	-7.14956750145834	105.987663542957	
1568500000	-7.02722194679408	105.308019968818	-6.71750867922225	-79.3850370922892	-6.71707948431856	-79.3692018936185	-7.17737150788164	106.1129597841	
1569000000	-7.00473723450911	105.084864488673	-6.71811725921697	-79.3499094270691	-6.72986180100553	-79.4249819773935	-7.20042806550268	106.073061059511	
1569500000	-6.99590154272068	104.898539861983	-6.72021817194007	-79.410917043478	-6.72096609814633	-79.3130485590994	-7.21814833156038	106.146500211783	
1570000000	-6.98217136554022	104.610808834029	-6.72586765934699	-79.4093033303419	-6.73147020987062	-79.4407495532258	-7.24704815863265	106.069874507436	
1570500000	-6.9953650321889	104.438150368572	-6.72962706692786	-79.3821851952361	-6.72005680008151	-79.4454443604315	-7.26230581807213	106.117978521901	
1571000000	-6.97476682604401	104.173900371728	-6.7301612766196	-79.4666584785109	-6.72040333992161	-79.5090440107529	-7.28118556111529	106.12335434647	
1571500000	-6.95304140277829	103.889529004739	-6.72365083962552	-79.4928373479391	-6.7156181450873	-79.438024229251	-7.31108895762451	106.138025210862	
1572000000	-6.93722570433338	103.810669900582	-6.73256873704	-79.4201377731732	-6.72805549804623	-79.4593172189715	-7.32573463488511	106.244739169553	
1572500000	-6.9244436757861	103.492760543439	-6.73409128515369	-79.4077682538135	-6.73051999805525	-79.4290200943572	-7.33734178522562	106.254170742304	
1573000000	-6.92587416279794	103.28619576398	-6.73871873449761	-79.4040325076369	-6.73469539510159	-79.4801430440024	-7.36468031269893	106.285413248822	
1573500000	-6.89598073326534	103.138310102833	-6.73147947100643	-79.444646237309	-6.73239841738161	-79.5379728780723	-7.40671768583183	106.222619598814	
1574000000	-6.85987235505129	102.995637559409	-6.72445703978724	-79.4653891807924	-6.72755798803421	-79.4573660678786	-7.43431272754737	106.227481280932	
1574500000	-6.84428256019111	102.708831563952	-6.73193791652141	-79.4483469020624	-6.71673033520361	-79.4315534395298	-7.45050741478512	106.190880636746	
1575000000	-6.81873370019461	102.570186608781	-6.70695709247872	-79.4875571419483	-6.7200152775278	-79.4801783460935	-7.4675016901024	106.223181898648	
1575500000	-6.79672939724838	102.433395465862	-6.71705080519382	-79.4345285613899	-6.72638222496427	-79.3784347059388	-7.49427844156373	106.360536484262	
1576000000	-6.78208167436167	102.151267113618	-6.71742315535338	-79.5087853303058	-6.72982430682404	-79.4093853206973	-7.51117513527534	106.366821656241	
1576500000	-6.75870282664439	102.138683520822	-6.72819032650818	-79.5197821206978	-6.73214654721898	-79.4365163557701	-7.54408960659709	106.262719172968	
1577000000	-6.7214919335614	102.09830093745	-6.72088680746534	-79.4286068957183	-6.71527753493707	-79.4210752583755	-7.56226667597276	106.39189083136	
1577500000	-6.71599509873175	101.851406270489	-6.71771277852181	-79.4304340679647	-6.7232772452857	-79.4183322299909	-7.60883197334858	106.383687915862	
1578000000	-6.67064526393103	101.838621175043	-6.71433199757386	-79.3692206929165	-6.71641444867117	-79.4420244611749	-7.60698251449189	106.363971929349	
1578500000	-6.64821744893672	101.611062776954	-6.71802971644393	-79.3382670645723	-6.70987055776882	-79.3940772437197	-7.64787156396879	106.416576868628	
1579000000	-6.63106941302153	101.587944645773	-6.72708594439353	-79.3878925675543	-6.72195083963317	-79.4485573903126	-7.66861938202336	106.334792913287	
1579500000	-6.585348150793	101.44254319911	-6.70753961497044	-79.3539853083677	-6.69875866780047	-79.3608684488179	-7.66608665241339	106.47446046659	
1580000000	-6.54882150896033	101.540315801701	-6.70737695928283	-79.3255454187747	-6.71469454343332	-79.3233265865734	-7.69652465712345	106.513733400258	
1580500000	-6.5281975955319	101.357301982079	-6.70533780532455	-79.3008212728269	-6.70770822912595	-79.2763125964607	-7.71816240349592	106.528140243712	
1581000000	-6.49645771117632	101.339429330417	-6.71185391345827	-79.303541623376	-6.70943946660963	-79.2917715469699	-7.75547466573856	106.519867715452	
1581500000	-6.47660918141477	101.29184326471	-6.70553532540069	-79.2510236894881	-6.71275553152321	-79.2732334238109	-7.7778511779273	106.505012090866	
1582000000	-6.44854960324744	101.207258822303	-6.71216715950512	-79.2125320299134	-6.69745257109066	-79.2781695637823	-7.80040144675113	106.582077571486	
1582500000	-6.41939163996653	101.209486967443	-6.69205155944115	-79.1786212887605	-6.68848900295108	-79.1800913244464	-7.81569057277723	106.585843491227	
1583000000	-6.37946057455571	101.148558588305	-6.69258003517011	-79.1853431001111	-6.68146389392941	-79.2519719843886	-7.82214884870776	106.559532314253	
1583500000	-6.34888560196955	101.248966055435	-6.68845429565025	-79.1607189634023	-6.69443551730518	-79.198464419409	-7.85539367734995	106.492896450961	
1584000000	-6.33062487935702	101.191429051708	-6.67869156338958	-79.1465576813059	-6.6928885215779	-79.1123946569558	-7.87400234468035	106.647289924962	
1584500000	-6.29335406266342	101.110256505106	-6.67600193173924	-79.1961129741862	-6.68135169768725	-79.1289817433529	-7.88310120593969	106.585031303226	
1585000000	-6.24302923952522	101.242210492948	-6.67773218123594	-79.1464315582375	-6.67080171014918	-79.0635353557111	-7.91058753428725	106.559579764124	
1585500000	-6.20321600886968	101.294464233594	-6.66560371829911	-79.0844466741601	-6.66937159599893	-79.0355206566834	-7.92749294345458	106.550042138023	
1586000000	-6.18038083267885	101.143383380059	-6.66862678595086	-79.0611536499564	-6.66312425270043	-78.994239796842	-7.95252663042261	106.672629829349	
1586500000	-6.14717868822664	101.409365377126	-6.66060117461109	-79.0387803557734	-6.65438172017834	-78.9502097991985	-7.96957471161495	106.663748451049	
1587000000	-6.1018333946505	101.393506950585	-6.66724199686131	-78.9333018036713	-6.63940278194136	-79.029730323473	-7.99238317581886	106.736447932234	
1587500000	-6.0817055782039	101.432690440639	-6.64489995378528	-78.8920500178666	-6.65456961712907	-78.903865293981	-7.99849878249984	106.659802290463	
1588000000	-6.02867208879184	101.416633719789	-6.62906231988333	-78.9217068103929	-6.6179484842589	-78.914812366795	-8.02927608008998	106.734237178807	
1588500000	-5.99573680370088	101.588626281112	-6.63156345671014	-78.8821856960811	-6.62776663088851	-78.874468764748	-8.04176844167476	106.610915524469	
1589000000	-5.96767239799474	101.654039939217	-6.62294546663344	-78.8066321320768	-6.63098082610903	-78.7588691118002	-8.06013056041695	106.719381218701	
1589500000	-5.92706589147766	101.789483939542	-6.61736482299271	-78.845640507115	-6.6068371166157	-78.814125197596	-8.07960972130438	106.751634608591	
1590000000	-5.86899028378815	101.801104340868	-6.60115926080782	-78.7817649608474	-6.60271947900161	-78.7147389337005	-8.08661892455575	106.720538039334	
1590500000	-5.84257388888572	101.993175908178	-6.59587100755126	-78.6412772718045	-6.5795010752226	-78.7123098141274	-8.07478958954202	106.736948725295	
1591000000	-5.82904841460421	102.073954349863	-6.59078087391567	-78.7565311503046	-6.57948408030331	-78.6991969873426	-8.11413867306675	106.719782026992	
1591500000	-5.79167261796853	102.129296669985	-6.58206068173283	-78.6431199915314	-6.57342252664863	-78.7090769712888	-8.13766313206444	106.693490725716	
1592000000	-5.74069950399314	102.293441839456	-6.58500103851519	-78.6505714801077	-6.55986307452362	-78.5749071449664	-8.14819248519031	106.68545202782	
1592500000	-5.72417997166614	102.383943434421	-6.55744121877913	-78.6310991578729	-6.55951508873925	-78.6401268437708	-8.13759379428145	106.722183176481	
1593000000	-5.682597945395	102.636039905707	-6.55057208677531	-78.5974977775714	-6.54444007401415	-78.5684592062733	-8.16919501029291	106.695836204082	
1593500000	-5.62942760802858	102.700643926098	-6.54399941325418	-78.5433592450684	-6.53282023821766	-78.5698827493638	-8.1788792280532	106.681358573135	
1594000000	-5.61497964972098	102.901533335402	-6.5395411018547	-78.5420073893021	-6.52782664247936	-78.466240969213	-8.18311895700859	106.718789707633	
1594500000	-5.566066631843	103.128868543268	-6.51476386810375	-78.469642047067	-6.50967378797422	-78.4458460920293	-8.1857981569355	106.642737806639	
1595000000	-5.52432764533314	103.210812070307	-6.51227655310922	-78.4557680782198	-6.50147338361485	-78.4199881017675	-8.21385124262451	106.683959816438	
1595500000	-5.49380231706016	103.443592642203	-6.49772394951939	-78.3691188256578	-6.50145611651578	-78.4376379968085	-8.20507580093373	106.73300803761	
1596000000	-5.46908615709036	103.641224137349	-6.49133985761073	-78.3879835461732	-6.48802732323127	-78.3511374986316	-8.22521716216923	106.808391174581	
1596500000	-5.41748182014525	103.867556533901	-6.46738429346136	-78.3298922672322	-6.47898926500175	-78.3308687594311	-8.23682415238765	106.5132983381	
1597000000	-5.38479111700441	103.997258064035	-6.45180170776816	-78.2191537441278	-6.45344054980134	-78.3128348153227	-8.21166709897364	106.726452247866	
1597500000	-5.34826919053342	104.116452941162	-6.4514976540313	-78.2895251055023	-6.44217697171747	-78.1731830174845	-8.26306125924774	106.732833536941	
1598000000	-5.33583052525523	104.259259288414	-6.43996407018371	-78.3276528676472	-6.43090971318619	-78.311290194724	-8.26463115056379	106.456442028918	
1598500000	-5.29377712680719	104.559657692189	-6.41953118968178	-78.319242215668	-6.41561883744336	-78.3065834441401	-8.25315651940645	106.571285581898	
1599000000	-5.25708546434729	104.793891448917	-6.41745035784454	-78.1424290611421	-6.40609293722798	-78.2169837233495	-8.27880455897663	106.538355309616	
1599500000	-5.21697140676194	104.950916862564	-6.39799599613503	-78.1435402347069	-6.36934281878854	-78.245559183424	-8.28076623991481	106.546573683716	
1600000000	-5.1853610494801	105.125016318209	-6.36858818668158	-78.1303003200657	-6.38398521844754	-78.2030666207612	-8.28322691806847	106.559446549293	
1600500000	-5.1534397553043	105.405759072569	-6.38690595277688	-78.1668361796356	-6.35892463091468	-78.1299324301439	-8.30511423856469	106.557627306094	
1601000000	-5.12480758094655	105.602866869594	-6.3494478660853	-78.1085493881051	-6.34960495958245	-78.0646613962687	-8.28630772053527	106.594578140479	
1601500000	-5.10333937384431	105.849973642009	-6.33274167401934	-78.1563446856654	-6.32581679175656	-78.1386269045667	-8.2928281992921	106.507225845193	
1602000000	-5.05200425056069	106.121179231148	-6.32254413575851	-78.0519336090974	-6.32795166316233	-78.0347411369552	-8.29872771277901	106.477941681588	
1602500000	-5.02988416128158	106.414910250608	-6.30659208048931	-78.0772347551902	-6.3106551695805	-78.0021748406439	-8.31095846823944	106.344712610414	
1603000000	-5.0050094415361	106.638686353327	-6.30416148824326	-78.0466886498471	-6.28240640392624	-78.0490358713429	-8.300801394142	106.372689847554	
1603500000	-4.96436679215316	106.844180661183	-6.27115199535858	-77.9910447411086	-6.25633749618122	-78.0131869747264	-8.30059243129952	106.284220939376	
1604000000	-4.92663499800237	107.146796802759	-6.27228012042002	-77.9933375489458	-6.25037826815147	-77.8759570951025	-8.29613946718991	106.302935842397	
1604500000	-4.90854538334433	107.353920120282	-6.24311438499856	-78.0560870899798	-6.22828735040005	-78.0056844797495	-8.30457594957233	106.185420807099	
1605000000	-4.88797406321809	107.602759285215	-6.22500378888963	-77.9266852861535	-6.22687453316229	-78.0127531109792	-8.31179483217047	106.23558631332	
1605500000	-4.85396550944759	107.835264591546	-6.19070557070959	-77.9877688466989	-6.18940513479148	-77.9949142596571	-8.28630801229802	106.182131348171	
1606000000	-4.83081129526277	108.059412280298	-6.18211054885622	-77.9845015137122	-6.17980715780469	-77.9732956805389	-8.28610442089523	106.167820921454	
1606500000	-4.80370426800783	108.497278166305	-6.166440859623	-77.9748320134655	-6.17266520452253	-77.8776130900133	-8.28100286878509	106.26267792009	
1607000000	-4.76614781236104	108.59311968399	-6.13967007856266	-77.9826725056924	-6.14203196540692	-77.9327395352897	-8.2932153330201	106.189914922142	
1607500000	-4.72895151227999	108.950488546565	-6.14032403986017	-77.9159740808136	-6.11927628088057	-77.9690535540685	-8.29306338586956	106.003413027177	
1608000000	-4.72406216366406	109.090709868138	-6.11173701568979	-77.9220603378864	-6.10356566650562	-77.886030906901	-8.2709177877479	106.047928024877	
1608500000	-4.68921213108784	109.383785762164	-6.10013021246425	-77.9247156226604	-6.0801376059167	-77.9575586531331	-8.27731545044727	105.860772515676	
1609000000	-4.66272200422188	109.718172648884	-6.07727983042169	-77.895377462785	-6.07705402134899	-77.988109003802	-8.27734609321007	105.963386718002	
1609500000	-4.64271580795125	110.005368096555	-6.06459461272039	-77.9520227402811	-6.05963713128588	-77.9223406034426	-8.26312409666101	105.915392199445	
1610000000	-4.6383132448884	110.123073026316	-6.04798405396414	-77.9770053696225	-6.03535751262729	-77.9730002447921	-8.24919767830606	105.784236586594	
1610500000	-4.60559262165389	110.384190942735	-6.00685662391043	-77.9117102597437	-6.01970105007544	-78.157098742354	-8.26353840508641	105.627285272764	
1611000000	-4.58162114565572	110.774011311905	-5.99156588237703	-77.9896160950153	-5.99518596830783	-77.9604202390884	-8.23281819668648	105.625358951513	
1611500000	-4.53509360310382	111.037886299341	-5.97162892036824	-77.9812595727848	-5.95750684027654	-77.9639131036321	-8.22434578017307	105.649712302859	
1612000000	-4.52802805647301	111.243101054992	-5.95493883250048	-77.9994022128481	-5.95116523868749	-78.0010116799914	-8.2458962879261	105.473453282106	
1612500000	-4.50520086652581	111.489047514282	-5.93626684070284	-78.0510902204195	-5.9292328274557	-77.9734919577961	-8.20436510398594	105.53731553515	
1613000000	-4.47798534619988	111.823095727435	-5.91532948912283	-78.0373997691258	-5.90771718270492	-77.9235271686263	-8.19724855993491	105.413254139299	
1613500000	-4.4768206972064	112.02688529492	-5.88296415731898	-78.0475871193674	-5.87585271243373	-78.0077508835822	-8.19123481439608	105.505697793984	
1614000000	-4.45735140021678	112.323487744507	-5.86363911517687	-78.1339070870519	-5.8667096841063	-78.0814703654125	-8.18627030219455	105.202818115714	
1614500000	-4.43551801606004	112.659672585946	-5.85966378930664	-78.1313356258418	-5.85504637984773	-78.035449912371	-8.18547493220375	105.360716889939	
1615000000	-4.43377013202581	112.890662677049	-5.82923995518998	-78.1782378740778	-5.8342029880552	-78.1621207685666	-8.18901820623004	105.189949143702	
1615500000	-4.41248990603508	113.11662763641	-5.8123885715593	-78.1391693299738	-5.80461012938747	-78.164178262032	-8.17665530491463	105.090938889356	
1616000000	-4.39453942926733	113.348558044922	-5.79292840069434	-78.2787610781816	-5.78199941142546	-78.2387182104491	-8.16307346392127	104.909784769473	
1616500000	-4.38168315129136	113.702852665156	-5.76159608103131	-78.3842477932117	-5.765938858662	-78.2853730399791	-8.13501439600366	104.824061063019	
1617000000	-4.37720568019482	113.925532342795	-5.74874767550041	-78.2861765816988	-5.73789640979595	-78.2933509012509	-8.13010668487858	104.848405002481	
1617500000	-4.35024407518381	114.190769178544	-5.72927522307045	-78.3771140639846	-5.70826133838374	-78.2793546951349	-8.13204669073806	104.851342376336	
1618000000	-4.33509145738924	114.443674348186	-5.70996502664801	-78.3913217826137	-5.69213161324156	-78.4158574019802	-8.12352364060147	104.826772775647	
1618500000	-4.33068492320262	114.645242423745	-5.68227041448872	-78.5006166644725	-5.67203988014906	-78.4129914133184	-8.1127016632515	104.521317807271	
1619000000	-4.32473697623511	114.838020384067	-5.65295941385464	-78.6108758150236	-5.64521670611669	-78.4811706725509	-8.08979916875153	104.535174359637	
1619500000	-4.32319824375326	115.229947602541	-5.63083233731825	-78.5819193746753	-5.62380353094975	-78.6172261424816	-8.07376496279231	104.491110392349	
1620000000	-4.3000504482193	115.533554535353	-5.62032685327606	-78.6036767787015	-5.61963883453339	-78.644664301913	-8.07875887683531	104.414471821778	
1620500000	-4.29584545516688	115.784276265232	-5.58932663311927	-78.6433319012132	-5.58260092039594	-78.6873000976707	-8.04098975723415	104.231467779953	
1621000000	-4.29601652861395	115.952256014287	-5.56717259250621	-78.8196417436514	-5.55951596561776	-78.7699185671563	-8.06990719533949	103.966093663796	
1621500000	-4.28488557856951	116.158799537713	-5.55463400659549	-78.803023991117	-5.55297557883396	-78.8177754681052	-8.03326434552337	103.984268500621	
1622000000	-4.28914866766714	116.488782666017	-5.52975211031569	-78.9615278556378	-5.51760962007099	-78.8563124130945	-8.00603903705997	103.845388771327	
1622500000	-4.28867142375691	116.72779971273	-5.49809844836188	-78.9281255903518	-5.50197458998387	-78.9502270361428	-8.00992348863185	103.808853469328	
1623000000	-4.27795719812997	116.980096893868	-5.48835236427341	-78.9562917381703	-5.48327681825219	-78.919516055856	-7.99896577834868	103.803952400538	
1623500000	-4.28837118780199	117.304383813466	-5.45854343721456	-79.1007925628242	-5.46086788272528	-79.0809885290403	-7.97769802486128	103.746673526571	
1624000000	-4.28640618253845	117.429613778426	-5.43533555698058	-79.1700612860622	-5.43707323789484	-79.1672309198602	-7.98057603283356	103.635269473659	
1624500000	-4.28354871371599	117.682714681071	-5.42213365066427	-79.3027762314455	-5.41096649203464	-79.2493516776579	-7.97001930496065	103.388914423288	
1625000000	-4.29556527915819	117.945931229273	-5.41460847526292	-79.4140348220311	-5.39494896946288	-79.3202403126599	-7.95198087522211	103.269205841367	
1625500000	-4.27978118070948	118.058734853366	-5.35711599252171	-79.4383938956937	-5.37110699018667	-79.4113498928145	-7.95611864823422	103.151430442979	
1626000000	-4.30406861199188	118.322376093981	-5.35356330918344	-79.5303168679676	-5.35918513712823	-79.5273942971295	-7.95051220694051	103.077249559849	
1626500000	-4.32219129281602	118.659966263825	-5.34879604896897	-79.5959068472619	-5.33306747589771	-79.5994669766377	-7.9305852489426	102.911122697486	
1627000000	-4.32583586596505	118.854546067433	-5.30792004946778	-79.7325659322572	-5.31924862173104	-79.7320895859671	-7.93046562413313	102.857506636644	
1627500000	-4.33560219815679	119.043813391514	-5.28828881934241	-79.7307654950026	-5.28275678462616	-79.7751780184312	-7.90071512416071	102.739347970056	
1628000000	-4.34704593891802	119.171622773467	-5.25885719227247	-79.9539202606016	-5.2768102627089	-79.8029188347979	-7.91684130826263	102.561718590848	
1628500000	-4.34020611072478	119.576815002712	-5.25292392682857	-79.9012555619252	-5.24696922962745	-79.9506165660488	-7.89650306328952	102.483772736097	
1629000000	-4.34483912165537	119.63523236115	-5.21989152580323	-80.1129493438252	-5.2129630529288	-80.1472143961244	-7.86939374704501	102.307956363013	
1629500000	-4.37788038760961	119.871562838685	-5.21068202428655	-80.1875643792251	-5.21850768676909	-80.2442230492867	-7.88172277225785	102.218038280676	
1630000000	-4.39716039071125	120.059052364563	-5.18324004811337	-80.2074445601965	-5.18536605077661	-80.3039799493975	-7.87478789393127	102.275537668025	
1630500000	-4.40709524342023	120.309922925951	-5.17322648985416	-80.3438320464029	-5.17836397264312	-80.4068342879301	-7.87014428386476	102.096724673317	
1631000000	-4.43325942060959	120.44808910167	-5.14496531451607	-80.4869231063194	-5.15057176052443	-80.4977956283142	-7.86203948257005	101.947878479275	
1631500000	-4.44589615182057	120.692926326005	-5.13463664526589	-80.608288668878	-5.13932885530628	-80.5870683741177	-7.87427079500844	101.886035270644	
1632000000	-4.4786965052722	120.881657961927	-5.136489655129	-80.6662340930335	-5.11364468650458	-80.7447961577991	-7.86535150552617	101.686486598956	
1632500000	-4.49506643810288	121.023355089182	-5.10409571065675	-80.830942021441	-5.10459800280806	-80.7855094366803	-7.86531796887277	101.504584038401	
1633000000	-4.52646672471674	121.257168269864	-5.08511948484587	-81.0097265084073	-5.07521359301406	-81.0019607572167	-7.84774059758418	101.403101802411	
1633500000	-4.55483075416321	121.492964112028	-5.08021037493142	-81.1209827841584	-5.06555553418442	-81.0908270958116	-7.84198311357316	101.2188574604	
1634000000	-4.59586201863145	121.482510461664	-5.054718863622	-81.2623334812764	-5.0484304351424	-81.1976126050297	-7.84732142817276	101.208577049969	
1634500000	-4.61360059190557	121.705242935076	-5.02291403056532	-81.3513337442248	-5.03301467195908	-81.3970682786806	-7.84028964279516	101.02415061785	
1635000000	-4.64833923707074	121.868201898563	-5.02272366789135	-81.3997765081161	-5.0144455085694	-81.4905053248203	-7.8464095214112	100.922592557327	
1635500000	-4.66645029227277	122.13689246952	-5.00622431459472	-81.5707844121296	-4.99260772965025	-81.5819666112328	-7.84267036835561	100.783103719771	
1636000000	-4.70933189954455	122.193086567357	-4.99325386385485	-81.7597430547014	-4.98804316419258	-81.6540390626559	-7.8286223736556	100.677835948968	
1636500000	-4.75830464882487	122.316100747471	-4.97521098669083	-81.8716177169245	-4.97913363306635	-81.9077947217906	-7.84776169418837	100.506232245441	
1637000000	-4.78660738552495	122.594220353449	-4.95742562504232	-81.9777116690356	-4.95773604687688	-81.9032386047861	-7.83507427387078	100.539850502926	
1637500000	-4.83293169370993	122.592998175448	-4.95167764869789	-82.0632132484284	-4.94894069813688	-82.0477127720779	-7.86475672697456	100.301009967021	
1638000000	-4.87317981849078	122.858268188399	-4.92682280379775	-82.2333500008228	-4.93272795208476	-82.1287566198557	-7.84791821536724	100.208430257271	
1638500000	-4.90005884133698	122.942328906697	-4.91155247684958	-82.3500561376046	-4.90494674339169	-82.308958449882	-7.86390283639468	99.9889536671951	
1639000000	-4.96514119030349	123.07524296469	-4.91117741872433	-82.522099449343	-4.90766525575066	-82.463651463861	-7.88437907726027	99.8236504331859	
1639500000	-5.00468576344439	123.219857854216	-4.88765108155269	-82.6359935108276	-4.89787292769421	-82.5857421659248	-7.88727001050065	99.7542021557154	
1640000000	-5.05347791967728	123.289369726789	-4.87841199553782	-82.7325856830381	-4.88154231358083	-82.7087310809294	-7.87824508274804	99.675155422528	
1640500000	-5.10127099513548	123.395808801143	-4.86291458908566	-82.8615905469023	-4.85574557909626	-82.8085659068405	-7.88471648744647	99.4758417616618	
1641000000	-5.16453427832714	123.544906043717	-4.86730886589249	-83.0876787319951	-4.84465752481336	-82.9740909721451	-7.89876212471798	99.4248149160014	
1641500000	-5.19508633477662	123.571778037502	-4.85333497399878	-83.1174906899751	-4.84676673751279	-83.1567565365394	-7.92528425762748	99.3201909774	
1642000000	-5.25781804599225	123.695614837045	-4.83686168880437	-83.233223257732	-4.83990539531876	-83.3106252183274	-7.94056253725215	99.1548600005848	
1642500000	-5.316366727273	123.759774110773	-4.82217342514488	-83.4712515774097	-4.82090393088075	-83.4112010344821	-7.95927470964035	98.9604833619086	
1643000000	-5.3829921505637	123.800452431293	-4.82316004847027	-83.5031637128295	-4.82108500428735	-83.5234609394322	-7.95400340621481	98.8835428937101	
1643500000	-5.45229419260218	123.946174048836	-4.81667269816772	-83.7339448161247	-4.79873319437067	-83.720589439083	-7.98346701798604	98.8212658046155	
1644000000	-5.50664357568081	124.045614875939	-4.81447393424405	-83.8399984845941	-4.79936659936302	-83.9006329996816	-8.00397272919133	98.6724772054086	
1644500000	-5.55436439701429	124.040101428915	-4.79144110572888	-83.9452377386434	-4.78929875786475	-83.9956953523826	-7.99712014214875	98.5736344745936	
1645000000	-5.63430230462001	124.049569992725	-4.79143645294617	-84.0874220524631	-4.77986435402935	-84.0718985739515	-8.03236217042982	98.5042468021091	
1645500000	-5.70136724993019	124.160104122271	-4.78416937369221	-84.27965770359	-4.78501345398084	-84.3242948872644	-8.04962338422247	98.2463554541263	
1646000000	-5.77200855801557	124.259135929153	-4.77975234608419	-84.3436385122237	-4.771000213915	-84.3765305045483	-8.05175025839446	98.2353112716659	
1646500000	-5.82424646891894	124.290958370184	-4.77098537414357	-84.4828925584206	-4.76263321022522	-84.4626237491222	-8.08136183937568	98.1637321383143	
1647000000	-5.91540496621293	124.29479582532	-4.75701066775301	-84.5616345450675	-4.75250378322306	-84.6112271711366	-8.09338244239629	97.9890357370152	
1647500000	-5.99526660405575	124.222523964734	-4.75583976015474	-84.7715654772162	-4.75539014794114	-84.7592002331368	-8.13866108782308	97.901230294452	
1648000000	-6.07342765298915	124.294951890797	-4.75258404040188	-84.9324965745656	-4.74929060881651	-84.908796304218	-8.16525661779474	97.747964164498	
1648500000	-6.15585254457942	124.230352607378	-4.73927305266901	-85.0864022532873	-4.7471076555492	-85.0639260218381	-8.18691156472389	97.7103378040225	
1649000000	-6.21695488737169	124.176516116961	-4.73484883454441	-85.1390814106494	-4.74606887537141	-85.1487236154114	-8.20096554365213	97.5683208217753	
1649500000	-6.30405160605485	124.134298405644	-4.74609970584594	-85.3546063933758	-4.73993888361358	-85.3438100676969	-8.23400710778381	97.5140809605255	
1650000000	-6.39147769123442	124.20371977896	-4.73695605063213	-85.3732854537905	-4.73422379542467	-85.419935757106	-8.26037817645212	97.362675499332	
1650500000	-6.47747423998578	124.136267386923	-4.74664067128803	-85.55969405456	-4.73084484231041	-85.5374346194355	-8.29796968133931	97.3635296746606	
1651000000	-6.56373174523734	124.116439127238	-4.73345707771156	-85.6961532691242	-4.72206864236953	-85.6484507457202	-8.32571765924371	97.2863822277719	
1651500000	-6.66617057027973	123.989056231904	-4.73939326237711	-85.8353204317981	-4.74183129646328	-85.7641384249115	-8.36747210252372	97.0678537119792	
1652000000	-6.74884596483398	123.927810628802	-4.72163890231657	-85.9499456019978	-4.73459833114576	-85.943434648888	-8.41434820895415	97.0416521390248	
1652500000	-6.83878190564768	123.850666136799	-4.7358825021638	-86.0384077371396	-4.73079623747774	-86.0063117925708	-8.45036971309848	97.0129686271673	
1653000000	-6.9320146382194	123.732971309517	-4.72695268317916	-86.1248739541306	-4.73852216316093	-86.0996873483039	-8.47391103364274	96.8451525907117	
1653500000	-7.03137646343001	123.752474626482	-4.73527253100174	-86.2260709950114	-4.73226055238288	-86.2458353903327	-8.50081137094597	96.7524064403152	
1654000000	-7.11136757342291	123.76657306726	-4.72771301088063	-86.3603339802305	-4.73402583545748	-86.3895607414965	-8.52499449294113	96.7449096183921	
1654500000	-7.22575365294538	123.503126018695	-4.7301651100353	-86.5122550046892	-4.73492340409606	-86.4312702953661	-8.57340776788479	96.7510209303788	
1655000000	-7.31901272690589	123.203256303087	-4.73280384580529	-86.5752148164568	-4.73533773970718	-86.5460856777155	-8.60873494200533	96.7867430387217	
1655500000	-7.3933141527989	123.190923792729	-4.72487269338793	-86.8263917672535	-4.72251353683734	-86.6443581830168	-8.65769158202311	96.583609655386	
1656000000	-7.51393254195919	122.93422267267	-4.73361868009567	-86.7963323529095	-4.73988736143951	-86.8538869077806	-8.6839223282181	96.4749677978117	
1656500000	-7.61660277811268	122.787487219927	-4.74425091119287	-86.9410246887417	-4.72526591352623	-86.8639269312872	-8.72145802278331	96.4764010921195	
1657000000	-7.74024133770903	122.611587257591	-4.73528454967901	-86.9758824064555	-4.73647828040837	-86.9865370117035	-8.76031318328107	96.3752787976159	
1657500000	-7.83587206287657	122.325694441577	-4.74057303586155	-87.1152561725703	-4.74105452207116	-87.1286324598754	-8.82229904644713	96.3410979295437	
1658000000	-7.92945035829041	122.242377098416	-4.75537336144326	-87.1927038099662	-4.73890595480351	-87.1231457739097	-8.84407411585547	96.3531365094946	
1658500000	-8.06294379679448	121.817811959136	-4.75909582516847	-87.3229092706848	-4.73594574855423	-87.2781789458145	-8.90143051671161	96.1565690566662	
1659000000	-8.16143280261037	121.68211677337	-4.74849905697287	-87.4554411964836	-4.75307431105294	-87.4289032013486	-8.94108292451493	96.2076010086835	
1659500000	-8.25504279195803	121.357962671609	-4.75856631596078	-87.498108913288	-4.75526043744318	-87.5035756564882	-8.98378152200095	96.2053383065526	
1660000000	-8.37282065641943	121.066676401828	-4.76589807065742	-87.5820763358841	-4.75486716549227	-87.5913530449139	-9.05467992061762	96.1364779111549	
1660500000	-8.46475462855008	120.598473849392	-4.75157854320435	-87.6833582537049	-4.75367659446494	-87.6042346955118	-9.08055955738727	96.179602903613	
1661000000	-8.61150294450314	120.372816007362	-4.76455144738343	-87.7537401634547	-4.75379810364446	-87.6865988728015	-9.13809816900336	95.9937222965807	
1661500000	-8.69029958629754	120.001540759884	-4.76768942908139	-87.8445104433084	-4.77471357675742	-87.8077539029902	-9.18250572322142	96.1307649847174	
1662000000	-8.81409353062567	119.799927984933	-4.78430577302708	-87.8562189928421	-4.76628486203159	-87.879459329865	-9.22197486343124	96.1757177638533	
1662500000	-8.93666929390971	119.350156220424	-4.78199591586876	-87.9327874122722	-4.76803649888421	-88.0222942330666	-9.2798369329866	96.0453770521762	
1663000000	-9.01045413213521	118.815855019282	-4.78332956165022	-88.1166602758253	-4.77215504831442	-88.0454094619274	-9.34395315918657	95.949131246099	
1663500000	-9.14449991528634	118.32584739893	-4.79449112051841	-88.1107054987526	-4.78191677937791	-88.1332600025723	-9.3791596516909	96.1793918003765	
1664000000	-9.26533454845851	117.906358928359	-4.78871094470017	-88.2262742501484	-4.79298535751042	-88.1602732372795	-9.42637796156004	95.9633948533339	
1664500000	-9.3637699338894	117.296377643995	-4.79128806388539	-88.2309268476508	-4.79706450402242	-88.2525467522792	-9.48672424968921	96.0526848301783	
1665000000	-9.49685267651907	116.857679490965	-4.80380133068121	-88.3748588448648	-4.79117617023004	-88.2192104088434	-9.51388296991616	96.217034654115	
1665500000	-9.57298568023421	116.554225565099	-4.81808145360205	-88.4964994341685	-4.8069181679738	-88.3409089576307	-9.59709196342174	96.0813127835862	
1666000000	-9.68948967298148	115.753022865262	-4.80965306832917	-88.510422812599	-4.80049262931669	-88.44718421587	-9.63488617126665	96.0339882597968	
1666500000	-9.75151382096311	115.153449135539	-4.81800388806605	-88.4972857765148	-4.80818096733689	-88.5245869952826	-9.67506526334532	96.0637195198564	
1667000000	-9.87436533680217	114.685342516886	-4.81462785192762	-88.6458815420523	-4.82056325316184	-88.5921367161787	-9.74858163561727	95.9893459261698	
1667500000	-9.96158498041283	114.048848504049	-4.82173995648353	-88.653655045928	-4.82892267307336	-88.5963863985764	-9.79983187433916	96.1274296047265	
1668000000	-10.0328422864663	113.376969925496	-4.83249969630669	-88.6498379382935	-4.8316843038676	-88.6017016069095	-9.83539212468305	96.0863468369614	
1668500000	-10.1363457954898	112.680257356014	-4.84096648214782	-88.7524753719893	-4.82969031790341	-88.6351956217792	-9.89475550668254	96.1779434244168	
1669000000	-10.240605780006	112.004422164351	-4.84518013886918	-88.7800837478079	-4.84017684960688	-88.6835903817271	-9.96256861698154	96.3030497658832	
1669500000	-10.3092577605402	111.282872014803	-4.84213384693516	-88.7194082509692	-4.84160607852867	-88.8085483693585	-9.98869343099414	96.3362369684998	
1670000000	-10.4261812893854	110.486455639481	-4.85095473298432	-88.7850258057158	-4.84730212422445	-88.7308009678313	-10.0480592468302	96.4137043505573	
1670500000	-10.4862267655066	109.786300717073	-4.86197501623377	-88.8701181589946	-4.85624446497995	-88.8322829094573	-10.0940123937408	96.4902219066386	
1671000000	-10.5463186642679	109.007753668187	-4.87114676398192	-88.8869570438742	-4.8495868654152	-88.8686701026797	-10.1598923017706	96.6965194372456	
1671500000	-10.5989602646648	108.27746934213	-4.86474715725001	-88.8627426874419	-4.86214254844442	-88.8779053688733	-10.1996720360072	96.5474045238456	
1672000000	-10.6776080588235	107.301892754512	-4.862548450895	-88.887853004358	-4.87117199459684	-88.8402118269638	-10.253463868996	96.6704842558602	
1672500000	-10.7284520874842	106.389381148034	-4.87656348401068	-88.9916545715153	-4.86979877382229	-88.9200347389137	-10.3017632507923	96.9392404729527	
1673000000	-10.8060417523427	105.559531406042	-4.87464812382156	-88.9411530363142	-4.86792726175385	-88.8843163522939	-10.3643090011454	96.7268751804618	
1673500000	-10.8719630208263	104.901523264486	-4.87631384173758	-89.0177548150323	-4.86551837087935	-88.9669954656209	-10.4213032011072	96.9451488450669	
1674000000	-10.92879882118	104.006002069554	-4.88886278299969	-89.1293976997545	-4.88971408519258	-89.0435085283529	-10.496933050877	97.0859070151756	
1674500000	-10.9337892716505	102.731763590133	-4.88165750617912	-89.0797896031073	-4.87513092888725	-89.0604493517017	-10.5028369571339	97.1157628114612	
1675000000	-10.9744826565372	101.969778952475	-4.88465908412985	-89.0582587884064	-4.87604256254282	-89.0558752412574	-10.555640650961	97.0857007062342	
1675500000	-10.9737604887991	101.58904465037	-4.89245908642396	-89.0352777310581	-4.88997648860551	-89.0315318511442	-10.6216074491389	97.3519790080552	
1676000000	-11.0095848140365	100.398053508217	-4.89083071587434	-89.1005186079688	-4.90085254463493	-89.1148227488721	-10.6717505366898	97.3825529105389	
1676500000	-11.0254301735125	99.4802176068709	-4.90617372233595	-89.1427490870464	-4.8940888414284	-89.0917261522728	-10.7351308787529	97.4585994120966	
1677000000	-11.0158826074785	98.4703285195179	-4.89401050188382	-89.099361989021	-4.88581422383383	-89.009934202813	-10.7678693916151	97.6637868720209	
1677500000	-11.0189689459628	97.7416896483887	-4.91269275738649	-89.1185715808806	-4.89845090629106	-89.0902394482531	-10.811502293913	97.7331287607998	
1678000000	-11.051847534622	97.0273464529741	-4.90586951813715	-89.0982487941865	-4.89580418358842	-89.0937404700933	-10.8354571798774	97.6597185935078	
1678500000	-11.0437293483808	95.992345680537	-4.91102380806452	-89.1088244666115	-4.89752404919308	-89.1024911179468	-10.8944772172604	97.9288297154752	
1679000000	-10.9917513686218	95.0023123908187	-4.90667106759727	-89.1415518683772	-4.89265487371926	-89.0707766565134	-10.9206274070624	97.9696835026588	
1679500000	-10.9373073365996	94.5225969006915	-4.91966876808977	-89.1311974083346	-4.90737677915697	-89.0531091076432	-10.9900734735631	98.270363389481	
1680000000	-10.9793884764984	93.4854980856174	-4.9134341844841	-89.0429360427671	-4.89969613983388	-89.0451423473263	-11.0045595011974	98.3364289601167	
1680500000	-10.9171786105937	92.6238950107668	-4.90371218911977	-89.078858587058	-4.895616892911	-89.0141114307045	-11.0429040001278	98.5314562012481	
1681000000	-10.8774893333133	91.8348291365432	-4.90276214683899	-89.0747879685858	-4.9090151879201	-89.0888652763424	-11.0894395259828	98.7182880713607	
1681500000	-10.8518562119969	91.1963801330127	-4.91032020924953	-89.0971189079686	-4.89897118520436	-89.0693848878725	-11.1181148736412	98.6759213679992	
1682000000	-10.7983876353378	90.3268700227758	-4.90975256928852	-89.1340986894061	-4.89803849742731	-88.9763834721485	-11.1843320864892	98.8333718987966	
1682500000	-10.7577170673337	89.4947277832345	-4.8943017666003	-89.1179402617226	-4.90771116125986	-89.053613572632	-11.2257527250725	99.1815361065715	
1683000000	-10.6659776612794	88.8641474315284	-4.89086797689948	-89.0561990409025	-4.89025131325103	-89.075946662379	-11.2364662027631	99.0843839147346	
1683500000	-10.6251515238551	87.968252918668	-4.89708008696806	-89.1333140427005	-4.89072519818219	-89.086755487586	-11.2619555415156	99.1205965323394	
1684000000	-10.5410380683727	87.47152466012	-4.89893321887613	-89.0117438699907	-4.89142758856005	-88.9329551144874	-11.2962898973603	99.4583373365051	
1684500000	-10.477038931764	87.1783983731115	-4.89169330111949	-88.997592165011	-4.88702334630652	-88.9640560989168	-11.3511571949971	99.4689683734162	
1685000000	-10.4120511099041	86.0995318053128	-4.8903324817297	-89.0637710250236	-4.88358347345749	-89.0308381338913	-11.3560161735248	99.5179687544467	
1685500000	-10.3255146541643	85.8945569939244	-4.88454062127788	-88.9315698629475	-4.88396046676818	-89.0125884085026	-11.4105677060803	99.733878815084	
1686000000	-10.2242268284616	85.237863893724	-4.86772971847177	-88.9599261677901	-4.87550939655333	-88.9684995386362	-11.4235057523074	99.9057998256125	
1686500000	-10.1569796773795	84.8110783130745	-4.88215978917377	-88.9679124997671	-4.87541508679224	-88.8665742708498	-11.4494955547324	100.209577793407	
1687000000	-10.0758311581063	84.1574181809411	-4.87153907061069	-88.8411816505672	-4.87065619311753	-88.9215163973755	-11.4720600382482	100.168004726462	
1687500000	-9.99239824205238	83.5866724113809	-4.86261406037617	-88.8861089392393	-4.86113084486124	-88.9861463328876	-11.4768176548902	100.476783154982	
1688000000	-9.88394351615911	83.5187290412509	-4.85758906295754	-88.880994154864	-4.85448524811701	-88.8655083143502	-11.4919573000451	100.581701657675	
1688500000	-9.78737626448209	83.0701935519041	-4.85899918123554	-88.8094244559894	-4.84806887984772	-88.8764266225882	-11.4953478544129	100.735219910053	
1689000000	-9.70741307771496	82.5173569816013	-4.84516686385442	-88.839141707899	-4.8355444973171	-88.8343350066004	-11.5549966222653	100.811148866661	
1689500000	-9.60006771590731	82.1187833023628	-4.84749189183765	-88.8376656389215	-4.83093733707354	-88.7434086770754	-11.5502398612595	100.788986160417	
1690000000	-9.52093324240834	81.9855188275064	-4.83182339092579	-88.7738339790087	-4.8402702795788	-88.8087682878268	-11.5603228862152	100.991116254779	
1690500000	-9.39672666328958	81.4741785910456	-4.82861738694001	-88.7680961905705	-4.82274938059613	-88.7822438571272	-11.5892185042175	101.353304580416	
1691000000	-9.30613983635488	81.2520689140525	-4.80529841678446	-88.7300674518699	-4.80396067163229	-88.7158573877637	-11.5859126713707	101.268406896358	
1691500000	-9.19825763669567	81.0458453836646	-4.80999324352737	-88.756814351092	-4.79780440517184	-88.7594843169504	-11.5914423189715	101.446310599828	
1692000000	-9.06857453562839	80.8133341379423	-4.79068615655161	-88.7356360504524	-4.79231627735581	-88.7058211183504	-11.5813223621207	101.544063954183	
1692500000	-8.99261700774225	80.7683256172118	-4.78644464014558	-88.6810870665606	-4.78470728291087	-88.6539542228009	-11.5854422085201	101.832313968928	
1693000000	-8.87392151506685	80.3972141859593	-4.77192904506393	-88.6888697237564	-4.78233537222634	-88.6644655213869	-11.6129209180771	101.917530718621	
1693500000	-8.78991287224511	80.237904741147	-4.7783481337146	-88.6551605026554	-4.75763568553681	-88.6037788524281	-11.5762757831409	101.862240573261	
1694000000	-8.65460320230778	80.2199780174826	-4.7501413846074	-88.6359792933508	-4.7398744772455	-88.6381392074634	-11.591178322371	102.242931578099	
1694500000	-8.57758253965269	80.0548183036519	-4.74178764899542	-88.6607565111099	-4.74522673371257	-88.7167385910902	-11.5829599518055	102.232408750161	
1695000000	-8.44236497399778	80.072950353916	-4.72104676289363	-88.5594741519817	-4.72286268225254	-88.6458780424228	-11.6002866639436	102.460593658811	
1695500000	-8.35683234573906	79.9751430118444	-4.7179229846186	-88.580948338626	-4.71032400965472	-88.5790188748044	-11.5754386805914	102.578783756862	
1696000000	-8.21142024999664	79.8525719282497	-4.69547922145721	-88.5331631801848	-4.68362402762519	-88.572458373626	-11.5768245186868	102.640908843207	
1696500000	-8.12139594460071	79.8984716213371	-4.68244890749893	-88.538656409442	-4.67767553129477	-88.5642211527937	-11.5644594542439	102.440677676763	
1697000000	-8.03610526804604	79.8536583606578	-4.67588308497149	-88.507675895718	-4.66758281277976	-88.5283522973442	-11.5646542289735	102.927618022025	
1697500000	-7.93727193108068	79.8555304728932	-4.66167487467849	-88.5682650492992	-4.66096460247627	-88.53097506073	-11.5757859557044	103.014973571125	
1698000000	-7.8368856289404	79.9036702557123	-4.64320899360852	-88.5083755351508	-4.64429036492715	-88.5073903911326	-11.5391866729728	102.920285714615	
1698500000	-7.72622683418067	80.1058021518326	-4.63052091918761	-88.4488765493326	-4.62968510119917	-88.4571149129491	-11.5166933599144	103.154552357326	
1699000000	-7.6084638529993	80.113918069419	-4.60021083407732	-88.4984103340905	-4.60698425027967	-88.4683795770971	-11.5152616071787	103.169670784412	
1699500000	-7.51114887057273	80.129222100784	-4.60301646188186	-88.5028322989954	-4.57582137660488	-88.4404975272073	-11.4760431993002	103.233879300435	
1700000000	-7.41110382930658	80.3871221242935	-4.5864716536828	-88.4408174325434	-4.58927698677985	-88.4211952080576	-11.4535083857241	103.346773115217	
1700500000	-7.29519169845406	80.5269340438048	-4.55530898479365	-88.4677823016572	-4.55591350689647	-88.4145109638626	-11.4601274388045	103.386728470509	
1701000000	-7.21188453890729	80.5055884907187	-4.54649071472947	-88.4800827892175	-4.53256702635943	-88.4264805944813	-11.4404000139156	103.388284120962	
1701500000	-7.08425939978938	80.7017081082386	-4.53302898246826	-88.4907483866897	-4.52021231749098	-88.4347195636763	-11.3952452129493	103.486486585289	
1702000000	-7.01474978758284	80.9184176515635	-4.52400488421431	-88.4745473986875	-4.50800717885731	-88.4071326604031	-11.3998847562511	103.610068457041	
1702500000	-6.89936101133497	81.0234754888734	-4.49220698049851	-88.5121505423755	-4.48536193404788	-88.4361376077309	-11.3402155840432	103.549568343715	
1703000000	-6.81527302731314	81.2761309113695	-4.47324139976945	-88.479317012855	-4.46784301685428	-88.490353922595	-11.3142656699112	103.624198796509	
1703500000	-6.70539373244222	81.5010918033127	-4.46147414227271	-88.4747783888768	-4.4491236873884	-88.3930965066316	-11.3017956902144	103.597390449255	
1704000000	-6.60210694781334	81.5402452567927	-4.42580550029713	-88.5087178752509	-4.41965240105255	-88.4630677093367	-11.2453386507494	103.531086695446	
1704500000	-6.51647024073659	81.8810296785773	-4.40691864579693	-88.4826575125323	-4.42482434175072	-88.4944989458535	-11.2157565540909	103.628808287875	
1705000000	-6.4239176866809	82.0027292782901	-4.38430869238047	-88.4952813556462	-4.39058909706935	-88.4688031558186	-11.1704650456815	103.728727890924	
1705500000	-6.32775119175789	82.2844450225248	-4.37467219620941	-88.5147350752211	-4.37156569540261	-88.5631943318975	-11.1557401428792	103.553927419679	
1706000000	-6.20862709781959	82.5895763691931	-4.33590175516301	-88.5262153972926	-4.33517781816137	-88.505886113888	-11.100657903046	103.69558514371	
1706500000	-6.13024677385035	82.6532439557681	-4.31627381269602	-88.6025225663349	-4.31073624014301	-88.5809779923572	-11.0704217729885	103.596265138897	
1707000000	-6.07851573060522	83.1558056852902	-4.32161567020041	-88.6637148112694	-4.30363512200454	-88.5249495258724	-11.0621465235517	103.588052043595	
1707500000	-5.96077495734912	83.2960456557769	-4.2880135028569	-88.6243365203858	-4.27411447588104	-88.5611050980312	-11.0197175427311	103.535682431061	
1708000000	-5.86668489029688	83.4725917396515	-4.25170612972848	-88.5882990644886	-4.2469917195439	-88.6619041331704	-10.9745686255713	103.656689401544	
1708500000	-5.79338136800695	83.7783136873418	-4.23680912158561	-88.7025606677467	-4.22099160203944	-88.6472210107165	-10.9099782825797	103.501487507515	
1709000000	-5.69654710152115	84.2749798056167	-4.21457329285271	-88.7289974799753	-4.19945765923507	-88.6831554275833	-10.909877637728	103.408857366526	
1709500000	-5.61534250451826	84.6255559054999	-4.18880472403892	-88.7239869405276	-4.18451178819925	-88.6445448988677	-10.8342300469558	103.581458001313	
1710000000	-5.52439302756387	84.862543788776	-4.18244536010131	-88.7999791530334	-4.16316112820453	-88.7679718516289	-10.8399353399674	103.412528510183	
1710500000	-5.44775087957003	85.0577408101135	-4.1360851023372	-88.8114301132381	-4.13345603332202	-88.7856588564834	-10.7886865796587	103.384423571536	
1711000000	-5.37300799104181	85.3091815631662	-4.12178795143413	-88.9073874262913	-4.10850199509629	-88.8829274570294	-10.7537945021328	103.16600425293	
1711500000	-5.28191427925437	85.7655278810454	-4.09963102096124	-88.9238977170972	-4.08197653353189	-88.8565313989485	-10.6903563244003	103.182762218088	
1712000000	-5.20288963418125	86.0560526514931	-4.06853502567626	-88.8918918911238	-4.05418354094655	-88.8832807887681	-10.6579946362293	103.206352454532	
1712500000	-5.11068520220908	86.4878060533529	-4.05310702151129	-89.0075785399416	-4.03572435164869	-88.9046164332132	-10.6266013726669	103.005885819359	
1713000000	-5.03727818697379	86.8126267504689	-4.02309653538817	-89.0867277163967	-4.01805638446138	-89.0479944252414	-10.6008562208605	102.817393002955	
1713500000	-4.96796358101921	87.1252893228289	-4.00367654472432	-89.133587584054	-3.98662969387581	-89.0970694126025	-10.5289890024843	102.774253409762	
1714000000	-4.88281359786994	87.433335706768	-3.97495859862355	-89.146442606787	-3.95346935481305	-89.1135246750383	-10.4870939913527	102.748504365063	
1714500000	-4.811650684894	87.6949066194489	-3.93662747667366	-89.2685765574422	-3.94254151587845	-89.1597701283392	-10.4664478717461	102.658996095983	
1715000000	-4.75091203893142	88.0165837089751	-3.91384200451803	-89.374880764867	-3.91197971370814	-89.3027491455044	-10.3878907244002	102.426311453492	
1715500000	-4.65993621074126	88.372036278804	-3.88574198176146	-89.3947205065979	-3.88498089310794	-89.4021829264787	-10.3588306399694	102.384761653055	
1716000000	-4.60452162102633	88.6052775017634	-3.86783025023921	-89.4548317874535	-3.85839075943075	-89.48831338571	-10.3211940280077	102.173573400639	
1716500000	-4.53512002442094	89.0939707312879	-3.83414370801681	-89.5164668085827	-3.8274437190796	-89.5486272858266	-10.2821400803496	102.177192385731	
1717000000	-4.47347193784344	89.4154712931467	-3.81842541236241	-89.6067863182815	-3.80935303723292	-89.6094902768845	-10.2563147393545	102.075475433523	
1717500000	-4.39902946078416	89.9225125420801	-3.78679752674132	-89.7167381704505	-3.78184217789759	-89.5692773633313	-10.1893234888047	101.996746586983	
1718000000	-4.32911197439233	90.2119195749796	-3.7559056955227	-89.8297039861815	-3.75450382600558	-89.7901880821934	-10.1533096563817	101.699502310798	
1718500000	-4.27267939413358	90.6192356465779	-3.73502304067037	-89.9036638815817	-3.73873276160791	-89.8289427766211	-10.1283313740914	101.665430351701	
1719000000	-4.20786904363704	90.8749585500112	-3.70825578889945	-89.9619670768354	-3.70688117379549	-89.9429330271285	-10.0903234956741	101.290600501522	
1719500000	-4.14667769334411	91.3275122301144	-3.68534346595312	-90.0074538743084	-3.6762207162309	-90.0183697525934	-10.050779649812	101.208000384995	
1720000000	-4.0776609132867	91.5916440194483	-3.63674085302769	-90.2660703785673	-3.64022963093298	-90.1754825847525	-10.0002218079503	100.832907419884	
1720500000	-4.02501899471486	91.8813226809766	-3.6217391183388	-90.3114622170256	-3.62453495852447	-90.3310338417368	-9.96562400704811	100.604266217368	
1721000000	-3.98097715194749	92.3765271753369	-3.61155168581486	-90.4981412355376	-3.61058546778893	-90.4156183567981	-9.94618300927464	100.501883847346	
1721500000	-3.93307425815061	92.7404657029759	-3.58879798869509	-90.567622078581	-3.57315194897011	-90.6011546900195	-9.89969265103584	100.365373716667	
1722000000	-3.86986118923088	93.2319003116419	-3.56133311237767	-90.6662325691014	-3.55647422608043	-90.595782276061	-9.88394267753725	100.261505489696	
1722500000	-3.7969453547186	93.4878676809201	-3.52547695177692	-90.7320836765139	-3.51080996401172	-90.7351129597417	-9.79299953615306	99.9103450793694	
1723000000	-3.75306751189488	93.7329586417781	-3.50392499491867	-90.93064105587	-3.49462382293887	-90.9100283243928	-9.81695725170776	99.7041118513027	
1723500000	-3.70513581524836	94.1958977037336	-3.46827502742291	-91.0448882174693	-3.4598732042964	-91.0040306998192	-9.73908888433389	99.5456309440506	
1724000000	-3.66862616149016	94.678169985779	-3.46047556724122	-91.2007173119789	-3.43892594850759	-91.2166120094347	-9.76127803417859	99.2512790309973	
1724500000	-3.61456532537999	94.9213856021845	-3.41140071334505	-91.3097923824819	-3.41693209543172	-91.2604507908054	-9.71471784449937	99.089909817656	
1725000000	-3.55771661785809	95.1037745735063	-3.39087845469349	-91.5252072274858	-3.38605039719922	-91.4051624054678	-9.66970662801361	98.7599695644886	
1725500000	-3.5489062542732	95.610348194499	-3.37462379909625	-91.6113726815869	-3.37496112229295	-91.6016639582198	-9.66200432598709	98.5057797024641	
1726000000	-3.49209038614033	96.0012152643964	-3.34536574953045	-91.7365433705053	-3.34670684967532	-91.7670788436731	-9.62691006192624	98.3141148613311	
1726500000	-3.43738018905279	96.394401370854	-3.32403550003169	-91.9101285933935	-3.33323231211665	-91.826160938904	-9.61200559443123	98.2350825528525	
1727000000	-3.41139292892735	96.7173365535978	-3.2980806730158	-92.0780303066695	-3.29595469908716	-92.0267280358216	-9.594541648349	97.9328463761467	
1727500000	-3.37152837046717	97.1315503135508	-3.27655801190689	-92.2225021989318	-3.27514295819314	-92.1244106456042	-9.57331010393519	97.939612437405	
1728000000	-3.34229674554481	97.3747324250426	-3.26371739679907	-92.3925078756431	-3.24334702014916	-92.3362786239562	-9.53381225464802	97.3397480119143	
1728500000	-3.31115512642773	97.7733490016702	-3.23935881662354	-92.4806829517026	-3.22303189802505	-92.520935733876	-9.51834528863235	97.1649241013473	
1729000000	-3.27997078386173	98.2423111487124	-3.20612264405081	-92.6591454074226	-3.21410630681113	-92.5943103287985	-9.51686553379085	96.9617163019773	
1729500000	-3.24609817103966	98.507522407467	-3.18987270744521	-92.7985940646791	-3.17716266219889	-92.8997774834704	-9.50885927133814	96.4685359861319	
1730000000	-3.24110411930534	98.7404446415124	-3.16830651237901	-93.119496250442	-3.16593243902512	-92.9914912603492	-9.50965738582212	96.2866880979712	
1730500000	-3.21810930794907	99.2653167372153	-3.16515493345226	-93.3198185352668	-3.15557750971003	-93.199861148207	-9.53460396341919	96.0787645694589	
1731000000	-3.17692549775439	99.5160107793852	-3.1207572585983	-93.4731883811246	-3.14560262293273	-93.3615219335692	-9.47135183692662	95.7236360338531	
1731500000	-3.15826227256839	99.9622295661001	-3.11116519202707	-93.5477719504145	-3.11465531498497	-93.5124191379176	-9.50216955225637	95.7071172864031	
1732000000	-3.14011591914082	100.264751612397	-3.09139035958419	-93.7959603980882	-3.08078736963225	-93.7615491829736	-9.46763122322618	95.1005241559079	
1732500000	-3.14365039881257	100.695649992689	-3.08021689744647	-94.0019934358726	-3.081902376655	-94.0031531267108	-9.49136175876617	94.864197224476	
1733000000	-3.0944088298794	100.933065851864	-3.04438447629193	-94.1881794980797	-3.04236097681378	-94.0781510860413	-9.45135120362404	94.4334648324356	
1733500000	-3.08898919112678	101.348476670549	-3.04102471438634	-94.2923837695048	-3.03017324656365	-94.3281695175708	-9.50498870025426	94.2408010178869	
1734000000	-3.07321622842883	101.61392603731	-3.0110568645189	-94.5777816711506	-3.01309039057848	-94.5462618087913	-9.48189290775314	93.8836366622112	
1734500000	-3.07560950021768	102.090323228938	-3.00953200473805	-94.817611517447	-3.00935674872921	-94.7895388412584	-9.53172361983373	93.7387235890229	
1735000000	-3.05830270132555	102.261039895319	-2.97105634614392	-94.9977258799822	-2.97926071829493	-94.9550618456207	-9.50124537715192	93.3511217166077	
1735500000	-3.07648275731595	102.650336972801	-2.97592111393758	-95.170883728267	-2.96482210874282	-95.110181645711	-9.52556140789927	93.2541133195477	
1736000000	-3.06770739158453	103.105575960033	-2.96060581905429	-95.384702622731	-2.94933928875624	-95.3372247441551	-9.53992268453669	92.7086013072212	
1736500000	-3.07334448648695	103.426772091141	-2.94209707830903	-95.6318479386827	-2.94034519284095	-95.6037950062124	-9.56012200302881	92.4269381982167	
1737000000	-3.04846265388073	103.801407179426	-2.92057142802575	-95.7799325455943	-2.92161401784534	-95.7685454249178	-9.5793352343881	92.2240450871876	
1737500000	-3.0685062987264	104.177395042932	-2.91997357928928	-96.0098416697476	-2.92118814130103	-96.0037818609062	-9.60021368327357	91.7823228142251	
1738000000	-3.06223164225026	104.562085777088	-2.90500572039578	-96.1158950034979	-2.90268289618237	-96.0925439817506	-9.59834965144373	91.692360295437	
1738500000	-3.07486535172957	104.819701645517	-2.88528341248132	-96.3523542407215	-2.88249597515842	-96.4022464616139	-9.63781448966637	91.3770293630596	
1739000000	-3.08724467002844	105.144918114898	-2.8828270532118	-96.5843968494429	-2.88113653023203	-96.5921941224635	-9.6777300962233	91.0973536684208	
1739500000	-3.10076027311031	105.481706576228	-2.86508055073224	-96.8138719286404	-2.87057402253914	-96.8572159566256	-9.73204576153656	90.7165079686447	
1740000000	-3.12076202596782	105.934828237083	-2.86303041386833	-97.0320215779695	-2.85882962623482	-96.9571753672293	-9.74892696839538	90.5826297959004	
1740500000	-3.14075811321209	106.259750283763	-2.85122011067104	-97.2018981289812	-2.84806579230183	-97.2282483482748	-9.78366088911621	90.3649733081911	
1741000000	-3.14065979856957	106.614280288416	-2.84836861843967	-97.3993064914358	-2.83939196166086	-97.4598227611391	-9.82873393211985	89.953303831968	
1741500000	-3.1740450252531	106.930645768581	-2.83406098595662	-97.6625394672926	-2.82496376231251	-97.584208222518	-9.85968404368887	89.6658491441717	
1742000000	-3.19692841680092	107.270116997598	-2.83488536810649	-97.8840453728221	-2.82936905767052	-97.8788426280097	-9.90838551928908	89.521854830518	
1742500000	-3.22004718079659	107.612033428535	-2.81172286806339	-98.0459700396957	-2.82330407933761	-98.0461026528815	-9.97124567195205	89.1711705304919	
1743000000	-3.23240981185765	107.895390686584	-2.81261150167034	-98.2980756605041	-2.81689435314889	-98.245442064345	-10.006768643316	88.8626419054899	
1743500000	-3.27797550296626	108.224704588932	-2.80434970424288	-98.508284537384	-2.80776928631831	-98.4922798075607	-10.051628500692	88.4785083543574	
1744000000	-3.31334430810617	108.694474334948	-2.80977161638996	-98.6722937352628	-2.79332845509949	-98.6787222537722	-10.1251068697288	88.2808105204549	
1744500000	-3.33682873121511	109.129218197429	-2.79381772903308	-98.8686705452828	-2.80508728488817	-98.8547863921928	-10.1603206080624	88.1351526444998	
1745000000	-3.38681467019339	109.380802791275	-2.79318251831502	-99.2136175401966	-2.79332542515494	-99.1333687539591	-10.2441315133531	87.7560634479754	
1745500000	-3.42367879023094	109.872946336261	-2.79066252917208	-99.3616102442857	-2.79114840861386	-99.3095092379162	-10.3073785533916	87.4584820345034	
1746000000	-3.45856927665002	110.236577167349	-2.79508670062887	-99.4891433987616	-2.78429354123146	-99.5445611502116	-10.347835188862	87.4049209222147	
1746500000	-3.49508922113222	110.507274563475	-2.79522424475244	-99.6945637268113	-2.79822239553993	-99.6669205410661	-10.4295521287016	87.3419982793607	
1747000000	-3.55795987811759	110.972024691325	-2.78850321985575	-99.8618768868535	-2.78288017712385	-99.8620070812535	-10.4853431386017	87.0691625699759	
1747500000	-3.60792727933159	111.347017301902	-2.79821476775064	-100.050513288476	-2.79053328962203	-100.102996395631	-10.5919678466034	86.6458838726884	
1748000000	-3.6426894716077	111.736996124571	-2.7943183527232	-100.261026031263	-2.79909001379986	-100.262797516283	-10.649797605001	86.5410684199511	
1748500000	-3.71445989213532	111.970051337091	-2.78370606632195	-100.545112251166	-2.78871082988664	-100.476027764103	-10.7409964025143	86.1865574059665	
1749000000	-3.76726386541363	112.406130634476	-2.78898435115331	-100.622193600946	-2.79187096020114	-100.673319499626	-10.8281170580336	86.0343871625414	
1749500000	-3.82707396818086	112.780283884886	-2.79064558560202	-100.872622811837	-2.78406059736272	-100.871317272234	-10.8891443857568	85.9285297723654	
1750000000	-3.88021842423497	113.200511667052	-2.8047334420398	-101.106828073556	-2.79496305011817	-100.998159209386	-10.9935428065619	85.6985374531475	
1750500000	-3.94835896854723	113.593129725633	-2.79133843516261	-101.219487454181	-2.79113586753656	-101.169478603136	-11.0827565262646	85.5875565489664	
1751000000	-4.00439197870676	114.080139862022	-2.79480438746165	-101.399688353001	-2.80001092907033	-101.457180439138	-11.1819933643229	85.3851042201575	
1751500000	-4.08953940782884	114.331455939055	-2.81143896490034	-101.545310582185	-2.80633743261697	-101.573113176275	-11.2668232766243	85.3430150161748	
1752000000	-4.14789538953071	114.929516977751	-2.82332537939855	-101.729213872927	-2.80799308814433	-101.732776380818	-11.3583700947601	85.2398436199663	
1752500000	-4.22869113438082	115.227173449139	-2.82017622707634	-101.944251819738	-2.81299822534694	-101.869941452011	-11.4678553472586	85.199344412197	
1753000000	-4.28922265516829	115.67999366174	-2.81955236624201	-102.094014491604	-2.81253785670782	-102.049800741373	-11.5442826266083	84.9224500364495	
1753500000	-4.40153081381601	115.990748037972	-2.82320351644428	-102.252954473671	-2.82521242248864	-102.266770318139	-11.6642878187671	84.6936618721117	
1754000000	-4.44578713644465	116.485916713144	-2.83582990763126	-102.342110807315	-2.83340787667463	-102.358302385963	-11.7507381163542	84.8528404323892	
1754500000	-4.53823887147251	116.827024366684	-2.84286592174944	-102.510283880901	-2.84436468101439	-102.522514658179	-11.9040742872134	84.7702633277785	
1755000000	-4.62472573853802	117.268376782747	-2.84430877950867	-102.69508737065	-2.84841746879356	-102.635022487187	-11.9736414314046	84.7897775102385	
1755500000	-4.71585753838733	117.716019994591	-2.85525853774337	-102.826449407094	-2.8550119926788	-102.875594096554	-12.1056054647168	84.4518666581412	
1756000000	-4.81590704376669	118.078170287796	-2.86958931127983	-103.028527703071	-2.85697429877249	-102.934476536631	-12.2189215103987	84.6032952990905	
1756500000	-4.91810067513659	118.447479319751	-2.87289909873213	-103.160099332627	-2.86130661521709	-103.128045390255	-12.308671671812	84.3285428636658	
1757000000	-4.99413472307368	118.972092835768	-2.87728498497509	-103.22834814962	-2.86922163689454	-103.242916705583	-12.4534226545903	84.5882974062315	
1757500000	-5.10151276798504	119.251885950785	-2.88747822327827	-103.369372926707	-2.87886644098281	-103.357740419318	-12.5530261065267	84.5645985609743	
1758000000	-5.2031371627232	119.75744003377	-2.89292057397211	-103.526665373799	-2.88993133588147	-103.461810134046	-12.6974279970843	84.8589283932215	
1758500000	-5.31209342907773	120.257138580404	-2.8999832505589	-103.616445265173	-2.91073756789727	-103.643133903034	-12.812862804267	84.6238684635899	
1759000000	-5.41398120709091	120.677212477466	-2.90304601580922	-103.746395987086	-2.90518824760824	-103.779475763973	-12.9375205620183	84.5932896921848	
1759500000	-5.53431165345256	121.054505328765	-2.92893902241153	-103.882746913903	-2.91156750383677	-103.918631466284	-13.0769655271951	84.949116148257	
1760000000	-5.62397145833753	121.579984114023	-2.9382629967988	-103.970623449457	-2.92588939308074	-104.015715562117	-13.1888220224938	84.9251780236281	
1760500000	-5.71789049641143	121.95294787846	-2.92918193694486	-104.105963639682	-2.92937813647265	-104.108105524866	-13.2782745473057	84.9968986768873	
1761000000	-5.86329457653869	122.39068675064	-2.94999246291444	-104.196700008521	-2.93908636807184	-104.218308892593	-13.4624024905898	84.9577080967652	
1761500000	-5.98765932775013	122.786037476855	-2.95370896865657	-104.338105148136	-2.96250836544022	-104.311819228953	-13.6299070301659	85.383196540356	
1762000000	-6.11219194765846	123.15241488895	-2.97497430476423	-104.465564437173	-2.97327838154452	-104.428382295576	-13.7182037867458	85.4351060708172	
1762500000	-6.21354900510635	123.670231890252	-2.98020363409744	-104.522133771235	-2.96715959177797	-104.552491554934	-13.8288344259489	85.6116714198295	
1763000000	-6.35913306701361	124.197471879313	-2.97784840138212	-104.660779935387	-2.98226700469465	-104.63702896688	-14.0037601894206	85.9360315514219	
1763500000	-6.47238157319464	124.61521327146	-2.99871734575892	-104.603706972288	-2.98537763293326	-104.698795164112	-14.1359622489939	86.1241993323901	
1764000000	-6.61924755661737	124.988000009468	-3.00412363673113	-104.754614293604	-3.00374486684496	-104.767762322686	-14.2407644267666	86.2360852636841	
1764500000	-6.72696006752322	125.401808024773	-3.01322040116505	-104.896049850863	-3.01179221941523	-104.882381060471	-14.3786384016885	86.722838309656	
1765000000	-6.88659441567534	125.874664227166	-3.0306851735861	-104.947153580421	-3.01789902902774	-104.90515851443	-14.5020461202695	86.8481281616094	
1765500000	-7.03840614601338	126.269625243214	-3.0312102082759	-105.01410128399	-3.0222287628196	-105.040316684397	-14.6428299014632	87.4978179436468	
1766000000	-7.18249074532384	126.638861442765	-3.04556853210348	-105.075747997489	-3.04131859108397	-105.108033626137	-14.7675166066464	87.6301998553928	
1766500000	-7.31348881071449	127.28559187296	-3.05436520194169	-105.166344349654	-3.0413022696972	-105.193443706568	-14.8875463333495	88.2102381671413	
1767000000	-7.48211934031636	127.576647004711	-3.06555255826313	-105.231112614363	-3.05833828654047	-105.192491296466	-15.0356720348573	88.5180076829205	
1767500000	-7.61680716446104	128.185153037968	-3.07411552905265	-105.261425305438	-3.07266818440123	-105.289750333913	-15.1486310250891	89.1297919646726	
1768000000	-7.79721343526081	128.559428311639	-3.07719053922146	-105.395979962726	-3.0722913267897	-105.357150418286	-15.310817104179	89.5010073836951	
1768500000	-7.96865696371435	128.898576410295	-3.08497276110864	-105.409188674411	-3.08170932698279	-105.412565781081	-15.4414784237273	90.0429016549113	
1769000000	-8.12458014662398	129.467708708182	-3.09880311819541	-105.43695701693	-3.1028469224865	-105.450834121657	-15.5495671301696	90.4372410965233	
1769500000	-8.27719330534615	129.616414334351	-3.11019748772392	-105.534567277253	-3.11130379052329	-105.448983537019	-15.6316781241137	90.8868860954821	
1770000000	-8.42843357701191	130.227547590789	-3.11670369303492	-105.554395906747	-3.10903686489165	-105.582665679925	-15.7960505988481	91.3635362153066	
1770500000	-8.63382078267729	130.62413925938	-3.12724611707771	-105.545931985523	-3.12209300371885	-105.582585182166	-15.9026634183851	92.1070938052153	
1771000000	-8.80636792719106	131.155400907276	-3.12734324366863	-105.653301667223	-3.12713987069478	-105.631780900972	-16.000712875773	92.9422704380057	
1771500000	-8.97541145881928	131.301306103317	-3.14250517992352	-105.70733358175	-3.14139837235128	-105.620240604525	-16.1139295636414	93.3995986051301	
1772000000	-9.19754764468768	131.725145540071	-3.15166321099119	-105.670966087326	-3.14891288048877	-105.659686898681	-16.1869121014247	94.1938760133456	
1772500000	-9.40505214667801	132.052986257683	-3.15464289370277	-105.716365869538	-3.15266862643131	-105.721536346033	-16.3072540078021	94.5626539963485	
1773000000	-9.61732554697347	132.434858267635	-3.15722989221496	-105.791466086698	-3.15572635073831	-105.724429743697	-16.4284309985291	95.0366747157309	
1773500000	-9.7988946242365	132.505880413882	-3.17886477329394	-105.764890493479	-3.17142981954273	-105.753608843589	-16.46605167002	95.8105344495077	
1774000000	-9.9847057861923	133.100660267061	-3.19443551539282	-105.776992176072	-3.18427566840524	-105.78139287606	-16.6099467750843	96.7384892018105	
1774500000	-10.2087941835441	133.580652326476	-3.19045715429918	-105.850353809869	-3.17786238187386	-105.857621215458	-16.6548443331226	97.3520698408841	
1775000000	-10.4367300650622	133.881018981622	-3.18730124978551	-105.864875039868	-3.19121012882344	-105.925548036908	-16.8090038250111	97.8672362378753	
1775500000	-10.6329497991718	133.940502365908	-3.20867170839273	-105.855990091132	-3.18852874103401	-105.921028186642	-16.8564205518238	98.8035972127806	
1776000000	-10.8549402497758	134.266607140264	-3.21105706566432	-105.912003229555	-3.20214676912098	-105.915084022829	-16.921891062156	99.2449062388959	
1776500000	-11.1047924203218	134.45576461527	-3.21765993972497	-105.883316175046	-3.21263195806319	-105.864009814468	-16.924872816086	100.281978981743	
1777000000	-11.3474690062424	135.049972531583	-3.22037514286068	-105.923050178527	-3.22062915461033	-105.976207974884	-16.9938661564002	101.151882475101	
1777500000	-11.5864049533947	134.986274490949	-3.22165463312621	-105.933028086256	-3.23048740626988	-105.99097107556	-17.0498641955734	101.642396520898	
1778000000	-11.8242927779563	135.155140142706	-3.23239575723575	-105.995868311803	-3.22235736958248	-105.93850006831	-17.0975638491588	102.581142215193	
1778500000	-12.125655702872	135.281955475386	-3.2244435968585	-105.952635180907	-3.22699368555336	-106.013473590662	-17.1368711439918	102.885332599646	
1779000000	-12.3766248816136	135.301352409737	-3.22917800103885	-105.934054797215	-3.23268434024308	-105.945609544313	-17.1799372265136	103.558176490023	
1779500000	-12.6530832784118	135.361378700661	-3.23971371777334	-105.986040696361	-3.22866597578839	-105.94641586256	-17.124655445207	104.627044586193	
1780000000	-12.9278450227424	135.388544176407	-3.24131691166395	-106.067242997141	-3.25185941373277	-105.992777769806	-17.1956599072683	105.076289050648	
1780500000	-13.2121669657659	135.535347925966	-3.24947041821582	-105.980592742531	-3.2474717351015	-106.009594609496	-17.2452447305647	105.741500494174	
1781000000	-13.4957608552968	135.446631775283	-3.25758013649254	-106.023919194033	-3.25178074706265	-106.029722285603	-17.2053996043404	106.591438967706	
1781500000	-13.8156630874103	135.025534128229	-3.25243390633855	-105.98176075354	-3.25314912757708	-105.921417877953	-17.1472202649096	106.772819511417	
1782000000	-14.1340317861841	134.969192615158	-3.27015836742532	-106.015628058236	-3.24796623903841	-106.048638063747	-17.2137902207249	107.585829239568	
1782500000	-14.4201616776352	135.152135607971	-3.26252749002578	-106.027524153126	-3.25685032991073	-106.067834898904	-17.21728756319	108.524584410093	
1783000000	-14.7739384746173	134.703301181589	-3.26559048068576	-106.093603262841	-3.25250284683671	-106.062392578299	-17.1591775235841	108.934715571923	
1783500000	-15.066806130323	134.630764883647	-3.26479952416124	-106.044480178627	-3.26133023321266	-105.997526449759	-17.1972003646782	109.928440383545	
1784000000	-15.4623530019003	133.58972450154	-3.26178581764954	-106.070896031247	-3.25830402938813	-105.99604185354	-17.1027908368694	110.201114855055	
1784500000	-15.8265423364286	132.659133228985	-3.25753392105579	-106.021555325254	-3.26025573881568	-106.087201067496	-17.0475389902663	110.638568954005	
1785000000	-16.1733728993391	132.418059548985	-3.25754693608356	-106.073048056929	-3.26663155454633	-106.060873911239	-17.0431263743724	111.096531351003	
1785500000	-16.5694906095313	131.535329609321	-3.26073953725018	-106.035168913072	-3.2566302483087	-106.006256811921	-16.9785736774977	111.581503300084	
1786000000	-16.972867873218	130.434313280551	-3.26578172198569	-106.068260469046	-3.25871198289415	-106.038516989649	-16.9744545202448	112.161460456495	
1786500000	-17.3581698579111	129.337081546474	-3.26057840513104	-106.089739873511	-3.25553610164497	-106.033071976689	-16.9115358847902	112.243658901603	
1787000000	-17.8541522047825	127.914948375467	-3.26091653293707	-106.086399987779	-3.25657863222554	-106.03921130905	-16.8997336009941	112.704548111562	
1787500000	-18.2343193472994	126.786320796057	-3.26648561695398	-106.091574471964	-3.25871823698952	-106.081448610091	-16.7682757379876	113.010722550388	
1788000000	-18.4978586095393	124.932704273376	-3.25982515032654	-106.083310507255	-3.25533756355801	-105.984632099181	-16.7468531409659	113.732560677471	
1788500000	-19.0823710150759	122.865837115643	-3.25570049902688	-106.071349225389	-3.25932899739556	-106.066413754082	-16.6971913909664	113.815406177059	
1789000000	-19.40741681469	120.472672315236	-3.25933581868034	-106.136035909339	-3.25251318847898	-106.016770013126	-16.6094739817027	114.217504580512	
1789500000	-19.7998711709471	117.576747148789	-3.25651357227028	-106.113932818251	-3.2533817255849	-106.070103914565	-16.5204491090381	114.193679017786	
1790000000	-20.3167513209628	115.315925958578	-3.23844096862932	-106.055208198711	-3.24361626386237	-106.074587673564	-16.4543194281973	114.283049059716	
1790500000	-20.6042870096773	111.819207015277	-3.2442618966913	-106.110767768692	-3.24169579421027	-106.05430120126	-16.4474382098576	115.098373304199	
1791000000	-20.8816081310044	108.41421285747	-3.23958746855536	-106.185511701015	-3.24162085260474	-106.081951729777	-16.291829606571	114.86260852647	
1791500000	-21.2470812641929	104.768391238596	-3.25057488569139	-106.173951153395	-3.24697809577729	-106.095156067835	-16.2676417621995	114.906994484697	
1792000000	-21.3864627833457	100.280531514296	-3.24203238892746	-106.187224700498	-3.22437965634134	-106.1561442363	-16.193527059919	114.803756252029	
1792500000	-21.6378442213467	95.8761164319423	-3.22929439339972	-106.18017987862	-3.22991851426644	-106.181536367417	-16.0755981760012	115.187401170725	
1793000000	-21.8001869657224	91.7848388063951	-3.22536789969817	-106.199105299953	-3.22061307861221	-106.186595792151	-15.9853414558093	115.196674272214	
1793500000	-21.8011738504732	86.5115925634558	-3.21785766771807	-106.173145276518	-3.21137378545905	-106.149013326143	-15.8928878956225	115.27702953659	
1794000000	-21.8280548009707	81.5660900340887	-3.21610826091986	-106.269576199872	-3.21750251703931	-106.169848384428	-15.8350062166421	115.146962065221	
1794500000	-21.6283441881816	77.2900178713847	-3.2183523756775	-106.24384335177	-3.20799221391828	-106.218730234044	-15.7348634254355	114.998650969146	
1795000000	-21.4534989658522	73.1009792560727	-3.20368017436251	-106.288075506678	-3.20546611847529	-106.192395728563	-15.6972810857494	115.14561178646	
1795500000	-21.1111431085078	68.5992398003821	-3.1926828289539	-106.322519171973	-3.19115101320753	-106.287073363541	-15.5835193428184	114.880281430804	
1796000000	-20.9251177398247	64.7350502168399	-3.18439283266755	-106.365199075204	-3.19244178974958	-106.303807029179	-15.5162715987341	114.454169221171	
1796500000	-20.5128631465397	61.275871060162	-3.18092866014761	-106.387692997574	-3.17580009063882	-106.380193116392	-15.3696617238549	114.457671346025	
1797000000	-20.3166623077635	58.5712620575108	-3.16440623685774	-106.475528860935	-3.17793207220909	-106.375435263758	-15.3590329423023	114.357486459742	
1797500000	-19.9003557079496	55.3433572748237	-3.17959683035561	-106.485913928394	-3.15960160600919	-106.413439041883	-15.2511000180832	114.416861200324	
1798000000	-19.4699645404498	53.4229783079816	-3.15891783622845	-106.46794595832	-3.16843538065396	-106.495899296163	-15.1371228200872	114.151471505481	
1798500000	-19.1004099894387	51.3729114983443	-3.15496297833389	-106.529173988759	-3.14836084135142	-106.460269904288	-15.080884863916	113.939785753295	
1799000000	-18.5739132692653	48.5893897237635	-3.13870520482616	-106.598697437015	-3.1378051035696	-106.582032036454	-14.9690358965225	113.387502319518	
1799500000	-18.2117067390685	46.9794341834135	-3.13516275988179	-106.62568077848	-3.13194497336505	-106.548612468665	-14.8954120614984	113.36681115291	
1800000000	-17.8279956830639	46.0107313250139	-3.12377190943511	-106.661578854421	-3.13089221215695	-106.60877862481	-14.7891000018534	113.11567844032	
1800500000	-17.4998592864454	44.4392287133551	-3.11324680745141	-106.725952780785	-3.11021606331582	-106.7349738502	-14.6854529030291	112.819371717375	
1801000000	-17.111591030242	43.1895729568619	-3.10648123535187	-106.760114402089	-3.098729458251	-106.714643677769	-14.6239920568831	112.654611306321	
1801500000	-16.7494970331832	42.3042250371982	-3.10247001647937	-106.833376766399	-3.10468486540743	-106.813136107545	-14.5177704470549	112.107605796606	
1802000000	-16.3316008556874	41.191288634199	-3.09309724590383	-106.894073040277	-3.08160348879688	-106.836397793021	-14.4652729449391	111.843141312453	
1802500000	-16.0224553223507	40.2875624187076	-3.05912636805253	-106.976255930711	-3.05346463939625	-106.912163842212	-14.3455254702987	111.734604217283	
1803000000	-15.7114151433673	39.9476889155585	-3.06506693143204	-107.016463576848	-3.06193124053423	-106.994111913533	-14.236195647372	111.083501879988	
1803500000	-15.2941408671882	39.6002554381096	-3.05284848723826	-107.177073681136	-3.04840772443188	-107.008169039414	-14.1824831253763	110.870913270461	
1804000000	-15.0628174217492	38.7532754266866	-3.05501572617648	-107.195402614334	-3.04711116866458	-107.110739713065	-14.1227384544772	110.661940504869	
1804500000	-14.6843832968723	38.6805760585887	-3.03400643663836	-107.194690418783	-3.03218038803951	-107.20461671059	-14.0148144500809	110.066831784278	
1805000000	-14.4446837582014	38.8169887524122	-3.01762094935257	-107.307427883849	-3.0164040516471	-107.344770983657	-13.9238505671114	109.918963089128	
1805500000	-14.0742094384029	38.2746257450195	-3.00562405258877	-107.393980195281	-2.99497622413404	-107.418449497031	-13.8127843000685	109.161627937647	
1806000000	-13.7899555505055	38.1899885519079	-3.00355247846383	-107.47140726864	-2.98758214970288	-107.480293396184	-13.7639461343749	108.765601840226	
1806500000	-13.5556166221218	38.5000739110604	-2.97457725963389	-107.542863453412	-2.97511730914008	-107.474190379096	-13.6547961549348	108.405012875625	
1807000000	-13.2807888293157	38.0957194887155	-2.97880824968891	-107.650121568821	-2.95585824083236	-107.5538398098	-13.6488323915974	108.066201598004	
1807500000	-13.0584798307421	38.2965292368288	-2.98014850858983	-107.761667534626	-2.94502461655819	-107.68906706486	-13.5718009264776	107.319564934734	
1808000000	-12.7825547680903	37.9362921779183	-2.95660155607536	-107.849310528256	-2.93463756709011	-107.855248131379	-13.5102173967222	107.046636926726	
1808500000	-12.5185370770334	37.9699816424918	-2.93018614164405	-107.966550840095	-2.91847087883499	-107.925955002373	-13.4384152817421	106.546072457485	
1809000000	-12.3195740900193	38.248944935018	-2.92243206004462	-108.027520353644	-2.91706293007756	-108.059552559856	-13.3425996516	105.931289437381	
1809500000	-12.0824967415104	38.6016165503814	-2.91730496674856	-108.111708279767	-2.90144086239669	-108.078621875564	-13.2508304530411	105.642268644004	
1810000000	-11.8717252217562	38.7412781090178	-2.89518816317102	-108.221099415502	-2.88873935122267	-108.192714544812	-13.2026358425108	105.0420392264	
1810500000	-11.647495527116	38.802332170026	-2.88670719314894	-108.369512799821	-2.88020110460759	-108.2917904826	-13.1626265682134	104.767165105904	
1811000000	-11.4148284828299	39.1032345328089	-2.87095503649254	-108.451337492772	-2.86497483792477	-108.469051732429	-13.0807821960536	104.123460220434	
1811500000	-11.2261665058691	39.4605626897313	-2.85827281584371	-108.529396799819	-2.85993993532015	-108.562373371713	-12.9782050548714	103.959983501791	
1812000000	-11.0177297892244	39.8084004653483	-2.84258335876391	-108.697487578463	-2.84343714053239	-108.631081341956	-12.9149162673043	103.240778950303	
1812500000	-10.825498926492	40.0944623534027	-2.83370205119917	-108.747183901353	-2.83619735255913	-108.731971179534	-12.8740600702927	102.894067466379	
1813000000	-10.6044058861163	39.9820990868136	-2.81851202687457	-108.901794874289	-2.81801968767241	-108.825414376772	-12.764693961567	102.451171885279	
1813500000	-10.4299803695788	40.2709815845486	-2.80672739443359	-108.992076554321	-2.79673619152445	-109.056597599781	-12.7411659285665	101.719429340771	
1814000000	-10.2561513488534	40.8774612627085	-2.78893475364583	-109.179436181482	-2.79906914174443	-109.128665739415	-12.7224383390949	101.194385250824	
1814500000	-10.0917274813533	40.914580154349	-2.79490234040243	-109.319485033519	-2.78334439763513	-109.359901374601	-12.6653043826034	100.677083008733	
1815000000	-9.90661260034739	41.5528320370394	-2.75891669747773	-109.392458204765	-2.75988494484581	-109.376511217219	-12.5752668769291	100.563765551404	
1815500000	-9.733142965437	41.715518260956	-2.74823342133478	-109.645944412557	-2.75684609357519	-109.549267209877	-12.5322710116032	99.8186437215028	
1816000000	-9.596386124682	42.1611304629361	-2.74415639843509	-109.692475724622	-2.7488268288222	-109.674835522336	-12.5476386193741	99.2387484193748	
1816500000	-9.42339490692967	42.3974962860137	-2.73762189409838	-109.885164394534	-2.72473289396347	-109.871198430434	-12.4538757397182	98.9215400604642	
1817000000	-9.26784176572005	42.9356365413427	-2.72466200238866	-110.062976429085	-2.71731503549663	-109.96253724584	-12.4406455582936	98.3631186965476	
1817500000	-9.13530178707841	43.3707405852867	-2.70845666362689	-110.078248942383	-2.72021214104483	-110.104380020338	-12.421211156355	97.9524320798541	
1818000000	-8.97759874970941	43.6275737908762	-2.70082397430518	-110.258728858134	-2.69836574607952	-110.227504449987	-12.3670965954395	97.4768995844165	
1818500000	-8.84710156589365	44.1010200440201	-2.68214412146058	-110.463539499927	-2.68290250613229	-110.46354883864	-12.310681855828	97.0265760591973	
1819000000	-8.69535031913292	44.4168790218118	-2.6813209668692	-110.635815856215	-2.66732696720858	-110.592797117374	-12.2670910009983	96.2513645511836	
1819500000	-8.57666075785091	44.832070970541	-2.66473819467378	-110.757516987146	-2.65822564547147	-110.678479515718	-12.264041413215	95.7279188408595	
1820000000	-8.45656798922705	45.1884073352419	-2.65491630086631	-110.931994103914	-2.65195327120731	-110.921060062309	-12.2255715445546	95.4929149836375	
1820500000	-8.31042178691956	45.8374700993122	-2.64393700414019	-111.107609008783	-2.63521549045321	-111.024231499619	-12.2212540900494	95.0783819001235	
1821000000	-8.16977769499634	46.2186830574433	-2.62923605694812	-111.208875106914	-2.62668232603588	-111.179237611419	-12.1659684735871	94.2616367138023	
1821500000	-8.09028173584693	46.8331306766856	-2.62001227692019	-111.377939590815	-2.62381719559031	-111.357732607421	-12.1787284478616	94.2109016267742	
1822000000	-7.9510290160339	46.9915528964574	-2.61363242821175	-111.587008749366	-2.61375619266982	-111.514576621708	-12.1402517597222	93.5289016583069	
1822500000	-7.83282881883687	47.601759254027	-2.5929797398729	-111.742415311813	-2.60371694003421	-111.714882504656	-12.132236269414	92.8489683649171	
1823000000	-7.7459279009453	48.0189442358135	-2.59551403771628	-111.975569814631	-2.591672688087	-111.822044915721	-12.1230272798783	92.4585961712885	
1823500000	-7.66027590458299	48.399865239853	-2.5764471246903	-112.056649668016	-2.58149526364128	-112.091419682091	-12.1247362384511	92.1433497618896	
1824000000	-7.51618934513477	48.8205897723174	-2.57029811964667	-112.277905429188	-2.56942002788454	-112.203178632929	-12.1094564199695	91.4463783509965	
1824500000	-7.43338614328323	49.3502987852957	-2.56390167834	-112.449993146061	-2.56117324155901	-112.380590137733	-12.1074228958427	91.1692131109455	
1825000000	-7.32152112773844	49.7425973962407	-2.55588745593732	-112.591985988375	-2.57030615500718	-112.569349361473	-12.1515186662765	90.6903588053727	
1825500000	-7.22361820409256	50.2114709736649	-2.55907622194908	-112.765259734337	-2.54509849987091	-112.77594239146	-12.155327189261	90.0350653993107	
1826000000	-7.13872259191645	50.4276699171152	-2.54174818909879	-112.94604751178	-2.53928378019166	-112.964886093249	-12.1520206798016	89.5003621998998	
1826500000	-7.0287154553134	51.1071599064889	-2.52624515999572	-113.130968231215	-2.54114593391745	-113.092350483232	-12.1369797256035	89.181590237645	
1827000000	-6.99197316736563	51.5918167155506	-2.53601522994201	-113.376534974901	-2.52038066644038	-113.250028821791	-12.1606003191774	88.6293324490248	
1827500000	-6.88809111155769	51.9760190682061	-2.51591657457358	-113.482462196375	-2.52982409589225	-113.458620110104	-12.1947277703648	88.1661773127355	
1828000000	-6.78744580563743	52.6485756073714	-2.50669957113032	-113.63791344692	-2.51969917013169	-113.615392875901	-12.1748475486456	87.974856458174	
1828500000	-6.75390765453197	53.052997507046	-2.51658369094365	-113.867109147551	-2.50914674537778	-113.834401595749	-12.2196854992435	87.4415349220643	
1829000000	-6.6481020805814	53.696423117217	-2.50580797637415	-114.016545450325	-2.50287147625276	-113.894430029325	-12.2524733603237	87.0630846145201	
1829500000	-6.60164365626652	54.0583103349381	-2.49967847163848	-114.20895783885	-2.50433078955112	-114.158599942024	-12.2886195753757	86.6509357228915	
1830000000	-6.50291889350702	54.5662872745504	-2.49115102198655	-114.408327893903	-2.48136907611444	-114.340241727149	-12.3084991601222	86.2557665963006	
1830500000	-6.45633554875335	55.0216762989758	-2.48828094039893	-114.56080267602	-2.49255399105662	-114.499544426855	-12.348828737053	85.7045533754361	
1831000000	-6.38890903182396	55.7035812191315	-2.49008720839652	-114.685378611535	-2.48972134349646	-114.650596748343	-12.3691220186422	85.6888143722749	
1831500000	-6.32056775891131	56.1232059693027	-2.48894145274114	-114.899712834808	-2.48225014637947	-114.895565109281	-12.4449728625492	85.0875029594944	
1832000000	-6.2777638884185	56.3840022018938	-2.48312078191165	-115.207698366341	-2.47288521416689	-115.111084057724	-12.5041511356195	84.5051975544124	
1832500000	-6.22571950426765	57.0661938127752	-2.48568174738254	-115.305907052331	-2.47918111776188	-115.235347011241	-12.583574877524	84.4089197485024	
1833000000	-6.16147479853148	57.4375563513021	-2.48190744233118	-115.504649889036	-2.46890969397446	-115.459556287466	-12.617235543028	83.7911822771095	
1833500000	-6.08831237494631	58.0981193861889	-2.47164195031986	-115.662976218181	-2.4629815281368	-115.621335352305	-12.6309246389658	83.4465608423189	
1834000000	-6.03133081647534	58.3113190133548	-2.46199714111912	-115.92001022051	-2.4637045080043	-115.864120542903	-12.7115488043673	82.9420375520148	
1834500000	-6.00678990118769	58.9133801212737	-2.47204949076654	-116.070492351479	-2.46267729730169	-116.091481639157	-12.7937253568475	82.6187589791706	
1835000000	-5.96726565393769	59.6063609066983	-2.46292318635216	-116.283204535098	-2.45435208164339	-116.161118146899	-12.8588468862275	82.5809752002772	
1835500000	-5.91723160591528	60.0435734894553	-2.46398320383668	-116.440981490766	-2.4745974223544	-116.43819422523	-12.9518430083135	81.7630883859294	
1836000000	-5.87701128728787	60.6087028318944	-2.48412579368666	-116.586617727911	-2.47450541056844	-116.586049554306	-12.9872243877389	81.9087818459357	
1836500000	-5.84698763373996	61.1887123866592	-2.46592337034758	-116.744430857244	-2.47030104811672	-116.678503974863	-13.0847439348614	81.6247119439999	
1837000000	-5.81281958124464	61.5879031338799	-2.47255756436233	-116.903507996094	-2.46925430370947	-116.946114010013	-13.1736377279391	81.2067770854936	
1837500000	-5.78683866626235	62.1171895885127	-2.47814278333296	-117.16872875802	-2.47048625695584	-117.088438634275	-13.2563730533703	80.8049670290796	
1838000000	-5.75893791424838	62.6155168327257	-2.47674174231245	-117.303399857463	-2.48285698856586	-117.318447767022	-13.378441262817	80.4918236717184	
1838500000	-5.72084227860626	63.2971022468969	-2.46772966567162	-117.48598679054	-2.47785060643194	-117.437816535226	-13.4714954280012	80.4034841567709	
1839000000	-5.70454541541631	63.686473681584	-2.48271866452854	-117.655685459583	-2.4797676168224	-117.654210643561	-13.5464135461882	80.0319159770829	
1839500000	-5.70718088557455	64.3522348857824	-2.48430228275362	-117.826420460407	-2.47310867269427	-117.818179353178	-13.6705680114688	79.7400654669372	
1840000000	-5.65863333496449	64.9191371210056	-2.48373468989083	-117.951637325478	-2.48397720928496	-117.924249624126	-13.7630860671041	79.7010192544856	
1840500000	-5.64073157813056	65.3644027690759	-2.50053030782119	-118.232748216102	-2.48636171824124	-118.107300039293	-13.905687773649	79.477589613716	
1841000000	-5.62757467610958	65.9855659758407	-2.49589808656795	-118.244499149287	-2.50313759509135	-118.285118231883	-14.0302700501645	79.3418538925589	
1841500000	-5.61466889045626	66.6228861102444	-2.49963218366011	-118.415047125722	-2.4995237481001	-118.479066231307	-14.1268826062078	79.2338934454673	
1842000000	-5.63392061738815	67.0553287632287	-2.51942732718618	-118.677706721682	-2.50804193812544	-118.569873508062	-14.2627632286651	78.9407964513922	
1842500000	-5.60426494233869	67.7766821691415	-2.51649531656102	-118.809382713191	-2.51505707092921	-118.808296704814	-14.3986720688114	78.8722130980581	
1843000000	-5.60054038794117	68.3705483176189	-2.51300549979873	-118.970779673391	-2.50586067815001	-118.947144865529	-14.5420965873126	78.7609543037111	
1843500000	-5.57821375800359	68.8154064229688	-2.52514235234922	-119.082303089658	-2.51840714585837	-119.041470091746	-14.6758438330011	78.8393352476883	
1844000000	-5.58149455243873	69.4245142800971	-2.52963819576244	-119.300163069632	-2.51632432253113	-119.185154981182	-14.8368241675735	78.4380941391007	
1844500000	-5.5756448511447	69.8989788845174	-2.53164012165161	-119.406754434788	-2.53181974144542	-119.35851297678	-14.933221706918	78.5595337300004	
1845000000	-5.58140125176497	70.5802047224433	-2.54405309677345	-119.509517025933	-2.53618872387961	-119.542312985147	-15.076604640603	78.5657412893199	
1845500000	-5.59205826616469	71.0932696997044	-2.55869852124013	-119.700320027902	-2.55173720500602	-119.661009723505	-15.29252746156	78.500568727002	
1846000000	-5.60625145147585	71.7998301047328	-2.55625487952568	-119.83766998698	-2.55778639112945	-119.795916175133	-15.43613067024	78.6402030850867	
1846500000	-5.60385151336008	72.3831768783466	-2.55929848900959	-120.025389697913	-2.5519813438655	-119.933703300556	-15.5923002361281	78.8533458275552	
1847000000	-5.61194845039305	72.9620714839624	-2.57285004995975	-120.138265095054	-2.56823699048493	-120.071796702653	-15.7793274305945	79.3703266504932	
1847500000	-5.61890758485598	73.6824191223674	-2.58561449022661	-120.277564397086	-2.58004087833682	-120.227620833484	-15.9065414411586	79.1817466006244	
1848000000	-5.63400072428825	74.1982299462766	-2.58133398585383	-120.442699956762	-2.58442422742275	-120.364816832729	-16.1487262554401	79.2537749048225	
1848500000	-5.64266096228853	74.6260469562271	-2.59842393335427	-120.599024505383	-2.58902451747215	-120.614116871941	-16.3122269151761	78.7607189962574	
1849000000	-5.67051036613126	75.3841304105241	-2.60533410003796	-120.671899040585	-2.59857517637927	-120.598281879469	-16.4938542139708	79.455630871556	
1849500000	-5.68520694682024	76.0521140943986	-2.61392715735541	-120.781007692846	-2.60923994496761	-120.699372651427	-16.668026898083	79.9689092952035	
1850000000	-5.69581309370417	76.5721370140282	-2.62451859409503	-121.006052573605	-2.61649820835981	-120.824546924805	-16.8671983325841	80.0530999148643	
1850500000	-5.72132748191936	77.2648555168754	-2.63783795219619	-121.042507896745	-2.61871152866915	-120.986629515914	-17.0753378136404	80.2909840298676	
1851000000	-5.74338128715086	77.9996973147418	-2.63263887470913	-121.190183303267	-2.62364527480608	-121.17794548137	-17.2994288920124	80.6138971846283	
1851500000	-5.7618973314824	78.6581561935693	-2.6455490076391	-121.221999436192	-2.6348043791482	-121.185593776811	-17.4206432507424	81.1706392089348	
1852000000	-5.79912864964045	79.3528375156781	-2.65215427482596	-121.326431959189	-2.65127090977249	-121.360282714972	-17.6495554903188	81.629391269201	
1852500000	-5.83804848990256	79.8271415973095	-2.66995871301719	-121.537128348824	-2.6505305490544	-121.468930982509	-17.8724309213837	82.233206096745	
1853000000	-5.87545995178973	80.6705557563259	-2.67268937153347	-121.561742233408	-2.67151015448672	-121.559550104503	-18.0497332594469	82.8652778983157	
1853500000	-5.91777663038448	81.261072181069	-2.68239662772179	-121.704846812329	-2.69046969590458	-121.597004420897	-18.337405329563	83.5871066516696	
1854000000	-5.93648043572342	81.9660015159587	-2.69652111531318	-121.787886968581	-2.68995679863502	-121.736541836473	-18.6043615323382	83.7892668180878	
1854500000	-5.95582124384838	82.7069907527032	-2.70056377133202	-121.889416624196	-2.70882050120163	-121.892505621589	-18.7733146478302	84.7844830143669	
1855000000	-6.01559485565649	83.321406031973	-2.71283179166444	-121.973186011949	-2.70568326128879	-121.972654501569	-18.9556914373152	85.8409906282288	
1855500000	-6.05184500936003	83.9412182143167	-2.71332883400777	-122.133932448373	-2.71392666664601	-122.070400728872	-19.2617083147523	86.3427239701173	
1856000000	-6.08030419281344	84.6257572542492	-2.72530112202619	-122.21812017457	-2.71702849638646	-122.139486822387	-19.4497194196116	87.1512231714551	
1856500000	-6.13034953005573	85.1794290244283	-2.73884434996502	-122.354126118898	-2.73535965210751	-122.219914515291	-19.6784396953428	88.9125851397124	
1857000000	-6.17122039057569	85.9185517065667	-2.74731281291828	-122.440152394313	-2.74428397110829	-122.411666807338	-19.8376372750069	89.3860595420272	
1857500000	-6.2412181939831	86.5836191787894	-2.76204321458957	-122.521004183028	-2.75319077386745	-122.385219100949	-20.1351547423774	90.4476046941712	
1858000000	-6.28753248200506	87.4147753757905	-2.76876197261709	-122.535262701145	-2.7712834163962	-122.527863525976	-20.355203374881	91.9776267297013	
1858500000	-6.33148525508839	87.9333461301224	-2.76936293068769	-122.692504936166	-2.77591371935171	-122.540310285427	-20.5587709215729	92.869652716791	
1859000000	-6.38947080562374	88.7762601181643	-2.77832801772725	-122.714084178712	-2.77813468119604	-122.699519017069	-20.7963824771288	94.36337157733	
1859500000	-6.42836976581221	89.3775677662612	-2.79587556701469	-122.773316762602	-2.79016471490348	-122.755036940894	-20.9823869737553	95.9839775152761	
1860000000	-6.4820134647697	90.4293301307052	-2.81138537546101	-122.799581158475	-2.80306253689566	-122.766270859855	-21.0643927807361	97.6650627407435	
1860500000	-6.5306196470814	90.8955468033986	-2.81541357324058	-122.958903757138	-2.80923980576022	-122.88047522849	-21.3232068878175	98.959656619123	
1861000000	-6.61984150592898	91.550385034408	-2.82194080658189	-122.956250538504	-2.81223100022611	-122.955817243812	-21.5213027105733	101.244783148331	
1861500000	-6.65467848769654	92.3098322490319	-2.83517509175271	-123.035488944507	-2.83036035995339	-123.10176518733	-21.696833922169	102.325962411676	
1862000000	-6.69688935819128	93.0598840087462	-2.83707687661142	-123.141520768331	-2.8340820909715	-123.10053810613	-21.7114735864958	104.168399195648	
1862500000	-6.76709769197269	93.941695162585	-2.8464232883907	-123.17136095223	-2.84150012026549	-123.105425325204	-21.9796435677721	106.129327477385	
1863000000	-6.84477063706864	94.6837522794343	-2.86161113969131	-123.247142916155	-2.85693940347294	-123.152386612284	-22.1721084394252	107.455611608739	
1863500000	-6.90473225545087	95.2696807730435	-2.86479080130058	-123.257168016941	-2.85670019612921	-123.228616411432	-22.2595158629952	109.602609906439	
1864000000	-6.97547416335754	96.0800387407208	-2.87381407459041	-123.31616146835	-2.86373218075681	-123.265821699872	-22.3448982024354	111.964028730901	
1864500000	-7.03174813306104	96.8085046721673	-2.88760471371325	-123.347504844157	-2.89233346035672	-123.309903826203	-22.4377232937401	113.768366065031	
1865000000	-7.10069257910786	97.728797599815	-2.89992692606075	-123.425275421092	-2.89305252900763	-123.351806792174	-22.2864969085455	116.067100695291	
1865500000	-7.17717818148691	98.3487973626125	-2.89436053019498	-123.47937814206	-2.89555810737841	-123.393884518089	-22.411392922446	117.55445075956	
1866000000	-7.25035190833459	99.2164986812244	-2.89702938739986	-123.545810720072	-2.90436231746431	-123.505137062613	-22.6014922868797	119.936844517103	
1866500000	-7.32843747970513	100.053392921838	-2.92731421575222	-123.577137878347	-2.90015840970463	-123.506132900292	-22.4051032484142	121.160815392325	
1867000000	-7.40224560407905	100.652541499837	-2.92627142736072	-123.60546872505	-2.91527026489028	-123.571152250034	-22.4887876481021	123.620595524809	
1867500000	-7.46846039286131	101.599405040452	-2.92854322506232	-123.671453166129	-2.92225272128221	-123.582142635516	-22.3969321218784	125.085489039373	
1868000000	-7.56340344512917	102.174587441782	-2.93579310028513	-123.70963234347	-2.92842075778675	-123.696117362722	-22.4694829715721	126.662707432914	
1868500000	-7.63100457794391	103.063070735344	-2.94427126415002	-123.803558305791	-2.94415121009228	-123.649061680704	-22.3244457046784	128.385580195569	
1869000000	-7.73403832996981	103.809488001327	-2.95221226354584	-123.751349316326	-2.95389313068181	-123.699630043766	-22.4031634689689	130.906676950938	
1869500000	-7.8089978037134	104.785899848537	-2.95719050763619	-123.803532999118	-2.95648752908878	-123.730842267574	-22.3175324256497	132.296993704854	
1870000000	-7.90353139591303	105.592320083933	-2.96301524017766	-123.841829799613	-2.96272131319069	-123.80413761226	-22.1993806633423	134.496928771709	
1870500000	-7.99335097417664	106.192092365221	-2.96730711533072	-123.848167548796	-2.96301477112538	-123.852852931936	-22.1452464257366	134.216630176328	
1871000000	-8.06691788813175	107.066221096939	-2.97653489058383	-123.907416598905	-2.9785943300411	-123.867909933061	-22.0279503265053	136.290445665339	
1871500000	-8.15809869111236	107.879161994783	-2.97962468790139	-123.943070277899	-2.98142551168298	-123.863205655303	-21.9928565813288	137.261772163066	
1872000000	-8.27514433909923	108.518004176619	-2.982833718617	-123.906574784698	-2.97926218869592	-123.856556288992	-21.8121419081556	138.340769119647	
1872500000	-8.33844195340614	109.40796975291	-2.99799074526374	-124.002426241643	-2.98216044997042	-123.956329569855	-21.7841213331953	140.497660584492	
1873000000	-8.42694348042484	110.17621355325	-2.99282584664392	-123.988504592159	-3.00780943526551	-123.929349145765	-21.6035043813823	140.141377337174	
1873500000	-8.52685268080993	111.080220250405	-3.00962086452043	-123.982083370509	-3.00557220329724	-123.955614099383	-21.475864817081	141.658364431645	
1874000000	-8.64913878372446	111.966231403289	-2.99847580073892	-124.061717718035	-3.01012672630441	-124.033321239271	-21.4207189555965	143.219985218947	
1874500000	-8.74818712969604	112.765754879386	-3.01587880515472	-124.028352634071	-3.01354732561381	-124.102817033549	-21.2509706577924	143.437486487739	
1875000000	-8.84424154361643	113.614391611803	-3.01769275036156	-124.055639904972	-3.01771482195139	-124.002660286119	-21.1915035925846	143.681862984453	
1875500000	-8.94997757165529	114.428509441232	-3.02396866137923	-124.124672140921	-3.0168370973471	-124.040910769202	-21.0407079991055	144.999414381803	
1876000000	-9.06916523050266	115.336163297007	-3.03154646080638	-124.083304116291	-3.01683689868925	-124.120180761121	-20.9238953571169	145.636729199201	
1876500000	-9.17818895421982	116.140085643316	-3.03459129356266	-124.159699437197	-3.01713376779876	-124.112249247473	-20.7547618012548	146.345380363843	
1877000000	-9.28700290950206	116.982102584304	-3.03522886946041	-124.172013387197	-3.02419871615584	-124.094740813333	-20.7094481105904	145.877426397672	
1877500000	-9.38039784798922	117.899233796768	-3.02930572510622	-124.185043614924	-3.03649108287753	-124.071466381385	-20.5769640352265	146.484888389537	
1878000000	-9.5161068444425	118.765469246556	-3.04257700103496	-124.112238224665	-3.04081323377606	-124.137878956191	-20.4189607876379	146.639744906798	
1878500000	-9.61884952242839	119.653308302291	-3.05238200191361	-124.217537846582	-3.04562362154078	-124.107388621241	-20.2898542962806	147.018551264143	
1879000000	-9.76298755616251	120.404062738309	-3.05391934864623	-124.201130277256	-3.04107142777543	-124.174746604095	-20.3139724196689	147.177930052341	
1879500000	-9.8587697418346	121.200419782152	-3.04983478340019	-124.214849701882	-3.05429285542503	-124.165172729918	-20.0611864986936	146.783815557463	
1880000000	-9.9838974481072	122.183148862631	-3.05803639359943	-124.230570394642	-3.05154580352281	-124.147451731224	-19.9923221471124	147.296260080211	
1880500000	-10.1306545366199	123.057828420017	-3.06583360592318	-124.250161753292	-3.06247148817282	-124.179213641382	-19.9815556483242	147.816366128909	
1881000000	-10.2493680879393	123.869181027209	-3.0634072985386	-124.274616521582	-3.05060644199183	-124.199502479943	-19.8521180390089	147.78355691622	
1881500000	-10.3934535059476	124.843133358098	-3.05774474398337	-124.299540894423	-3.05872822867851	-124.211873275477	-19.7472759655652	147.513267602154	
1882000000	-10.5292587127925	125.773376205901	-3.06081775856652	-124.329639448178	-3.07771809832818	-124.224858911469	-19.5857348602471	147.566790531289	
1882500000	-10.6489439009811	126.244895447694	-3.07049818546041	-124.209375326159	-3.05542195726407	-124.180398607506	-19.5764410363793	147.221759212604	
1883000000	-10.7883551617075	127.562293281543	-3.07319355077629	-124.29619555263	-3.0693653725537	-124.235833638825	-19.4511313983045	147.496930847608	
1883500000	-10.9234021657827	128.374567947492	-3.07130388100717	-124.352965103659	-3.07586467703666	-124.30636073795	-19.295103765234	147.263912592394	
1884000000	-11.083258646059	129.115428642894	-3.06383540804598	-124.243867975266	-3.07124778025493	-124.223515631558	-19.3054478664462	146.665232385246	
1884500000	-11.2381619517258	130.026728178053	-3.08205305470912	-124.331296713621	-3.08249802610712	-124.260411927847	-19.266189928692	146.296474120178	
1885000000	-11.3652322821514	131.042883075996	-3.07239079001297	-124.308684815024	-3.0679063956331	-124.35454913978	-19.0678986158289	146.13803018596	
1885500000	-11.5298584897757	131.85833920672	-3.08511520846615	-124.376039927011	-3.07302893650533	-124.265456198899	-19.0888872806154	145.67653226675	
1886000000	-11.6872386995564	132.627103001058	-3.07587954899748	-124.351830106887	-3.07045064556767	-124.293869588299	-18.9549659918884	145.067461016052	
1886500000	-11.8422400700404	133.574162558986	-3.07913870948499	-124.393820523343	-3.07956936867332	-124.250600455364	-18.8727990585947	144.373049464447	
1887000000	-12.0395907440203	134.230829488109	-3.07634519682324	-124.348219231093	-3.08015536207605	-124.278245728296	-18.8706581983961	144.0843777	
1887500000	-12.1849352863481	135.512021424019	-3.08040543599925	-124.378689234844	-3.07590219919918	-124.362185376826	-18.7254307805298	143.829978602137	
1888000000	-12.3718400290682	136.298453079657	-3.07195462346133	-124.325531208633	-3.06413212216164	-124.35346537831	-18.7177699036568	143.392138559668	
1888500000	-12.5241974577198	137.100001544903	-3.08552905869579	-124.368831861444	-3.07605425420152	-124.31246480974	-18.6612535252805	143.286549052738	
1889000000	-12.7263093088767	138.41490973189	-3.07830151646469	-124.407309388416	-3.07624489404454	-124.357785308978	-18.5232996496857	142.303007547029	
1889500000	-12.8822667411049	139.147956886291	-3.08112974381464	-124.438717428466	-3.07812003914565	-124.388962101498	-18.4618070825267	142.328458255258	
1890000000	-13.0827847144958	140.12444927954	-3.07990987739763	-124.467953419932	-3.06567770738637	-124.376229475591	-18.4058549763325	141.175297636769	
1890500000	-13.2432183548032	141.09411698536	-3.07670369277967	-124.455711182669	-3.07856929318724	-124.393262374911	-18.3507900295449	140.579043984999	
1891000000	-13.4716042435877	142.001927230098	-3.07038345873087	-124.497581766993	-3.07572953227863	-124.395726579277	-18.353704547229	140.029848486497	
1891500000	-13.6421226057097	142.641959808533	-3.07363180462356	-124.50952673172	-3.08445098721185	-124.497076232407	-18.1730081372695	139.100051912701	
1892000000	-13.8987453666684	143.710977613005	-3.07895330433942	-124.512094300759	-3.07510189550778	-124.44650215951	-18.1883085655943	138.862023399028	
1892500000	-14.0997822752876	144.330553823126	-3.0822106538714	-124.513537848793	-3.06594448380401	-124.495702839571	-18.1526932478886	137.760213823357	
1893000000	-14.2781828691598	145.41488779435	-3.07575815596136	-124.547656499809	-3.07037281419565	-124.456156907358	-18.041316491628	137.438024227347	
1893500000	-14.5277294049651	146.609796031069	-3.07805729780527	-124.59727696232	-3.06371369379588	-124.485470583313	-18.0469304814901	136.913946177673	
1894000000	-14.7513443059249	147.31163171397	-3.07888082394386	-124.6145254395	-3.06739622368158	-124.538988139648	-18.0130904736787	135.868177415245	
1894500000	-15.0374843555407	148.224495161311	-3.07950910409902	-124.556325420068	-3.06316606877539	-124.591693784172	-17.9473182823324	135.288088099061	
1895000000	-15.2376595669684	149.348987247946	-3.07407404994449	-124.580858037125	-3.06054103982145	-124.600019257077	-17.8959635100419	134.461372688521	
1895500000	-15.4797832238042	150.226173676485	-3.07920563636132	-124.699765604273	-3.06723338640254	-124.612319872646	-17.8385733656836	133.703608312143	
1896000000	-15.7092037486124	150.991244402217	-3.07697745078726	-124.707818961954	-3.06686048733581	-124.559168621653	-17.7948989873043	132.999732062513	
1896500000	-16.0293953834952	152.260391312155	-3.06221185164724	-124.664220575156	-3.0649683397709	-124.671808641471	-17.7298218667486	132.605881655402	
1897000000	-16.2320847350405	153.218381860696	-3.06469216089605	-124.71333174299	-3.06083027762215	-124.679239209082	-17.6282944422752	131.571483583001	
1897500000	-16.5761148451991	154.040483881756	-3.0659258520345	-124.724202466041	-3.06645064641383	-124.65415489854	-17.6290057515823	130.53665856714	
1898000000	-16.8328132919598	155.220507680385	-3.0635268371615	-124.739598762408	-3.05714961956296	-124.761563867733	-17.5859921729921	129.973381456709	
1898500000	-17.1313920779082	156.153672129693	-3.07040256535787	-124.778361055332	-3.06183611453726	-124.760681697578	-17.5554604344308	128.845049485212	
1899000000	-17.5128384787205	157.549296300615	-3.05089091244338	-124.837598727099	-3.06063837281589	-124.7616945153	-17.56211253926	128.147035924081	
1899500000	-17.7990819961193	158.587955443325	-3.05308403020504	-124.871152787179	-3.05501799222797	-124.738658309306	-17.5429223861606	127.666079594285	
1900000000	-18.0810033576268	158.993589301499	-3.06227771555263	-124.885620022966	-3.06312807387896	-124.914515147962	-17.3905010512819	126.593825175379	
1900500000	-18.4697004959878	160.132355902017	-3.05620993764487	-124.924934173085	-3.04743442437641	-124.881810740917	-17.3965438913426	125.901993788784	
1901000000	-18.8602129150732	160.891698780583	-3.05702572933745	-124.985675339127	-3.05467861277311	-124.850170428058	-17.34891955075	124.703614016695	
1901500000	-19.1401213982061	161.966192203128	-3.05106313672154	-125.000346254429	-3.03657074309547	-124.987416423981	-17.2485080733741	124.190905082473	
1902000000	-19.6176764950903	163.492640517556	-3.04921494463833	-125.035531833396	-3.04083501150671	-125.012808624421	-17.2198963902973	123.030342256198	
1902500000	-19.9544599075837	164.68609868061	-3.05018102392094	-125.005517868212	-3.04411690860459	-125.006670423169	-17.1905929079748	122.480444788641	
1903000000	-20.428261197566	166.036246671612	-3.04843072062032	-125.16010834754	-3.03627170425829	-125.043054640685	-17.1751462523243	121.824364577796	
1903500000	-20.925352836851	167.023365635168	-3.0457136407176	-125.102744459683	-3.03456002591933	-125.110307915298	-17.1223273764823	121.038916083863	
1904000000	-21.3932242517401	168.637402359472	-3.03365824739504	-125.174788706158	-3.02696530731632	-125.152804909832	-17.0973612786242	119.939021038117	
1904500000	-21.9293949577429	169.646969034442	-3.03121303019408	-125.242393042627	-3.02880592146276	-125.170510688686	-17.0359121648246	119.255786049653	
1905000000	-22.4489440582527	170.886492588516	-3.02979854368143	-125.258636551783	-3.02200934093531	-125.206689987191	-17.054634254064	118.286272481038	
1905500000	-22.9604924679335	172.757733158568	-3.03492788779075	-125.286666898277	-3.02833715541049	-125.256204976403	-17.0071261682	117.542072442685	
1906000000	-23.6166661314304	173.851615640142	-3.02339628063794	-125.407292133547	-3.02372385564385	-125.391118237374	-16.9135948847823	116.91515395945	
1906500000	-24.2495255948051	174.942527898828	-3.02812382665092	-125.511845859324	-3.02233659965513	-125.443448926879	-16.9186314248034	115.987948329174	
1907000000	-24.8649798419039	176.827362777279	-3.01880660331299	-125.457629998571	-3.02015268766201	-125.427256283759	-16.8650116442498	115.091894255313	
1907500000	-25.7419970839726	178.231361758861	-3.01673174575766	-125.532264949111	-3.01441309238448	-125.528588926095	-16.8597840969552	114.441092049019	
1908000000	-26.5515079769814	179.461652838283	-3.01377913189914	-125.545728977126	-3.02024969144398	-125.549562528791	-16.8139140031095	113.575935218768	
1908500000	-27.553606740114	-176.98909065727	-3.01510774637521	-125.651743339793	-3.00490795133247	-125.602295233564	-16.8047486358202	112.877440770969	
1909000000	-28.2915172828592	-174.861231423017	-3.01495041531335	-125.753263187257	-3.00301597781301	-125.640266663469	-16.7436335507998	112.095936540022	
1909500000	-29.5285485584646	-169.804980720654	-3.00115957895527	-125.776852370241	-2.99607755131365	-125.719569802358	-16.7166290343987	111.170553147284	
1910000000	-30.869185281721	-169.170187713074	-2.99702768552734	-125.782079825312	-3.00072975649159	-125.766920001495	-16.7277464444929	110.381477445232	
1910500000	-32.1529094257547	-163.211396955262	-2.99386506254028	-125.868971056317	-2.99220120055963	-125.810818061105	-16.6656118685591	109.88776529487	
1911000000	-33.6320727527872	-155.330605100416	-2.99134232118387	-125.940465335465	-2.99835255264336	-125.899348680477	-16.6499641324966	108.700716392021	
1911500000	-35.5576271980022	-146.171152100741	-2.9893848382566	-126.00197308571	-2.9877991045549	-126.020152775446	-16.6050434809776	108.10895960884	
1912000000	-37.7072505661565	-133.00413945885	-2.99192672937643	-126.05023567704	-2.98879880534798	-126.062270975718	-16.5878719057911	107.659575603441	
1912500000	-38.8263573975801	-112.541681913963	-2.98590745533413	-126.15324567462	-2.97931363574264	-126.094852367414	-16.5952435323908	106.509428510378	
1913000000	-38.6458872611651	-81.9549303168356	-2.99176936415041	-126.314827957547	-2.98213146852843	-126.17848348904	-16.6337325802909	106.063793565304	
1913500000	-38.5095479154768	-62.9871863906349	-2.97713935808537	-126.228217688543	-2.97401748370888	-126.28336796369	-16.526466468818	105.444521121285	
1914000000	-36.1000919241929	-47.7805451209051	-2.98355307119408	-126.389119428816	-2.97148917163208	-126.295441864072	-16.5878576423747	104.740792346162	
1914500000	-34.38192744247	-34.0380242100655	-2.96870805888551	-126.424905146491	-2.96012952225452	-126.403111483409	-16.5409441829384	103.7557752871	
1915000000	-32.9964360594804	-27.7751433787064	-2.97588902310448	-126.498071044369	-2.98031474958242	-126.464515183366	-16.5344600230448	103.379603815472	
1915500000	-31.1258662886638	-25.5849054726981	-2.96785704844379	-126.569703615489	-2.96470487195976	-126.537166131466	-16.56849885389	102.532985665389	
1916000000	-30.1944363339826	-18.5708567711242	-2.9643385327429	-126.609265117471	-2.97458905415963	-126.601184218216	-16.4834229715205	102.02025448392	
1916500000	-29.1217737530744	-17.7475791917716	-2.96920697162853	-126.717497480732	-2.95767125446622	-126.769005111723	-16.5748781971051	101.368832211403	
1917000000	-27.8263832415531	-13.0474937567686	-2.96307635070858	-126.831384703129	-2.96624058999892	-126.782379004142	-16.4916452917739	100.591503727057	
1917500000	-27.0369944248372	-10.6966920581973	-2.95425128384318	-126.90310743571	-2.94662839666042	-126.836990948328	-16.5592444025697	100.004407375857	
1918000000	-26.3597322302384	-8.92864998619656	-2.96161503747891	-126.929933612509	-2.94484460220975	-126.981719168239	-16.5288843117511	99.6382347402549	
1918500000	-25.4821857121384	-7.66389552394576	-2.96045053469255	-127.072514915942	-2.95581151041293	-127.066335246779	-16.5232490524651	98.8351950033379	
1919000000	-24.8567921634247	-6.12271452741193	-2.94171542587704	-127.094548207536	-2.95284317357252	-127.134889294021	-16.543085295804	98.5354086981096	
1919500000	-24.3562194614504	-3.28458781552351	-2.95392833183367	-127.286513936119	-2.94670794801579	-127.244196482753	-16.5490091713002	97.8773638782376	
1920000000	-23.6678544191844	-2.64998898101413	-2.943397372281	-127.321958414112	-2.94040422489241	-127.285670372147	-16.5814770698882	97.0226719413406	
1920500000	-22.95884265661	-0.931303263061911	-2.94900558551626	-127.397667828978	-2.93910260315736	-127.373595270315	-16.600919053457	96.7374925954531	
1921000000	-22.4850294015548	0.663618168432602	-2.94301228515784	-127.465272013478	-2.93187303405188	-127.477366462734	-16.6382993067398	95.8799962783696	
1921500000	-22.1361736990975	1.83318120803767	-2.9458933335446	-127.535671747099	-2.94527188753878	-127.479550233082	-16.6275439869828	95.7636105841735	
1922000000	-21.5140235415695	2.49889710161313	-2.94296265110129	-127.676514407583	-2.93472200920487	-127.618964208518	-16.6647635093537	94.7876464691717	
1922500000	-21.1271731286513	4.83331056368233	-2.93651500055467	-127.752673082437	-2.93739584921483	-127.757061428686	-16.6857006024401	94.6478228207813	
1923000000	-20.884217504071	4.57388551914784	-2.93229476826041	-127.856592637975	-2.92588877068769	-127.815264089916	-16.8058934593356	93.9463651818939	
1923500000	-20.4222400696917	6.24219209283074	-2.92127090753166	-127.914154539936	-2.92590966728197	-127.950258115873	-16.7917086978277	93.4220931503562	
1924000000	-20.0502875049867	7.22570489110857	-2.93211571327019	-128.053475487122	-2.92585667104338	-128.016280026188	-16.8084573183738	93.2046156657111	
1924500000	-19.7398661759943	7.88374867211417	-2.94230810086008	-128.155469106527	-2.92812926567982	-128.089563002863	-16.9332204003551	92.7950130721938	
1925000000	-19.2982984342942	8.99448537041749	-2.91792448604263	-128.205690290624	-2.92310093552574	-128.200374457284	-16.9650234320272	92.2570380934051	
1925500000	-19.0672339247222	10.1520972623713	-2.93073805920917	-128.351120944857	-2.9261789262336	-128.304674138462	-16.9511620920169	91.9780000718306	
1926000000	-18.7120105647741	10.805686345424	-2.93155183844532	-128.407763293621	-2.92307091196857	-128.384101170695	-17.0298348612012	91.4487096675087	
1926500000	-18.4844693888601	11.8350993786501	-2.93327949946249	-128.509159292205	-2.92435619082767	-128.543054999988	-17.0636343939391	91.1452415692033	
1927000000	-18.1304237013851	13.0341339811646	-2.93191210966325	-128.645712698317	-2.92186876868797	-128.590784423207	-17.1522401268614	90.8122385949339	
1927500000	-17.9397819857677	13.6041807426811	-2.92498283805609	-128.730529865328	-2.92643962306841	-128.710131364995	-17.1920425352271	90.5442958659049	
1928000000	-17.7185871067739	15.350393419621	-2.91714766242901	-128.799110684121	-2.92230755787466	-128.768799381234	-17.2648371078722	90.3622249409297	
1928500000	-17.4346327162511	15.9313205343756	-2.92452172285341	-128.872538923074	-2.91699379787244	-128.888430263917	-17.3712476659375	89.7367041201794	
1929000000	-17.2526392939591	16.4937786519643	-2.92997584456368	-129.059537942477	-2.91327738595492	-129.00100745993	-17.4084387667984	89.7322749331774	
1929500000	-16.88357612406	17.1802248684231	-2.92969306099953	-129.123636833632	-2.91230757276552	-129.073804012041	-17.5367858712643	89.4623643367929	
1930000000	-16.8146144183571	18.4392506155949	-2.92972864527699	-129.215339244097	-2.91765081653633	-129.226867449956	-17.6522694058025	89.1871949411834	
1930500000	-16.5473466319616	19.5175814723397	-2.91884035470061	-129.333305357536	-2.92238680498408	-129.229449176124	-17.7295499978804	88.9736495688292	
1931000000	-16.3759100152172	20.0111860756806	-2.91962355642676	-129.418647481561	-2.92421896240176	-129.40496920286	-17.8603819756441	88.7196202719273	
1931500000	-16.1650451890512	20.4526600335438	-2.92714492730917	-129.528396727706	-2.92027277312834	-129.48929261172	-17.9342008972355	88.3205392452075	
1932000000	-15.893144253212	21.7227274440133	-2.91407560574688	-129.649984504014	-2.9258334259393	-129.623499240204	-18.0256005324215	87.884961744099	
1932500000	-15.7600581043167	22.5639732090319	-2.93056742698338	-129.725821526501	-2.92163419678563	-129.7425007448	-18.124239999683	88.1999248447871	
1933000000	-15.56274158473	23.2934219971972	-2.92035644494135	-129.815905599629	-2.91469158303787	-129.861097372363	-18.2895364724954	87.8287095197893	
1933500000	-15.5222849970328	24.3543302257532	-2.92703552718625	-129.968852333364	-2.91850856405369	-129.916112393165	-18.3929748342949	88.3015678510319	
1934000000	-15.2660478070109	25.1331227832275	-2.93134705376433	-130.002936376166	-2.92140744332668	-130.00360627692	-18.5807458841335	87.7927956055562	
1934500000	-15.1253945124511	25.5621434583009	-2.93188341481328	-130.196386760468	-2.91906619831299	-130.130813060611	-18.6286395635181	87.6839546680167	
1935000000	-15.0086038051965	26.7523967212751	-2.92941032243339	-130.24133724173	-2.9239561436203	-130.25068211603	-18.814402028414	88.2965692050183	
1935500000	-14.8507312241764	27.6908434891685	-2.92622047535083	-130.344584107648	-2.92493418112966	-130.39624412523	-18.9091942753626	88.2019964591681	
1936000000	-14.7095771639278	28.3370452811866	-2.9319287471954	-130.464778821087	-2.92537235149058	-130.43271854705	-19.1701994511097	87.894386907115	
1936500000	-14.5579710356318	29.1746351938451	-2.93428758123359	-130.550545094164	-2.93289067339868	-130.516840690336	-19.2676343486975	87.9922926773461	
1937000000	-14.4232903612743	30.0053869532806	-2.9277195715457	-130.703404884988	-2.92592336915392	-130.676412483641	-19.3869258313905	87.8064735276712	
1937500000	-14.2881560540634	31.012628466697	-2.93273968754452	-130.779606226555	-2.93603810639225	-130.803399675142	-19.6042243676408	88.3056882270851	
1938000000	-14.2068285787989	31.6806979179982	-2.94465315612989	-130.871122651421	-2.93796185670947	-130.850687090401	-19.7548538298682	88.6760790473261	
1938500000	-14.0768894178873	32.4582061311043	-2.93665156028476	-131.015462278515	-2.93462645146287	-131.014687944595	-19.937235908682	88.7681982584979	
1939000000	-13.9445785416937	33.1242529631835	-2.93732463634791	-131.14384313727	-2.92398000598008	-131.088551220335	-20.0499373704586	88.7332693105996	
1939500000	-13.8023494698687	33.9710945497926	-2.94201637471782	-131.144419618328	-2.93965866938852	-131.191003002437	-20.2290961451474	89.4410197147635	
1940000000	-13.7157699918922	34.7912585315514	-2.93916378048456	-131.288122088027	-2.94617296199744	-131.288417229952	-20.4705535919808	89.0232589703672	
1940500000	-13.6045340057631	35.7338791045733	-2.93894661156805	-131.41994134328	-2.94186623267291	-131.426964154521	-20.7184577072933	90.171492659519	
1941000000	-13.5928816992952	36.3656571693882	-2.94641850344103	-131.545087091096	-2.94614291950685	-131.45533631383	-21.0357707254387	90.4492447355386	
1941500000	-13.4318498602872	37.1012091430757	-2.94451185557365	-131.602925113586	-2.94584530026704	-131.602268904738	-21.1491177674207	90.6023612193499	
1942000000	-13.3544707969515	37.9898639237384	-2.95467238110167	-131.734472057773	-2.94263079214528	-131.742003400866	-21.3320845497121	91.4959807684284	
1942500000	-13.242218582811	38.8342755685191	-2.95765752456246	-131.790845920306	-2.95861928980929	-131.77751308388	-21.5641176815209	91.9388715695522	
1943000000	-13.1608821602398	39.5779561803403	-2.96139901196518	-131.917755280332	-2.95363596887337	-131.924537657842	-21.8863523084961	93.0540443003013	
1943500000	-13.1173480429498	40.6534693260211	-2.96798446019303	-132.017772939364	-2.96053140137122	-131.992240955684	-21.9856630549817	94.1719931612872	
1944000000	-13.0235055821859	41.3663612726336	-2.96264220073396	-132.11996300471	-2.96380624039172	-132.073753969499	-22.3207188068163	94.7702226014153	
1944500000	-12.933471155471	42.0413024304944	-2.96954360326034	-132.241207945024	-2.97623272655629	-132.222024519222	-22.6701977913049	96.3701857467654	
1945000000	-12.8856654752458	42.8839022994583	-2.96795936228565	-132.32394799063	-2.97165689816269	-132.298631234364	-22.8069648154958	96.7904474711871	
1945500000	-12.7965076528006	43.9802708913613	-2.98380112247747	-132.414294375436	-2.96087188284413	-132.436256796142	-23.0811574899115	98.3548038080412	
1946000000	-12.7421647855286	44.54415391693	-2.97370799370467	-132.556816596926	-2.9746120247784	-132.501174542862	-23.3953996129307	99.9813401559975	
1946500000	-12.6812395586164	45.3236602912563	-2.9691320822273	-132.638107073103	-2.96604438320376	-132.632824628088	-23.6646037973423	101.285362332457	
1947000000	-12.5887597974765	45.9254100192747	-2.97703646018553	-132.73847305347	-2.97807994160332	-132.728411524285	-23.8107383946491	102.329468906235	
1947500000	-12.5721325148096	47.044799669639	-2.98501203727718	-132.851354438772	-2.97833115728601	-132.855755556255	-24.1116606862859	104.665944371115	
1948000000	-12.4570947015744	47.7864234822837	-2.99389247799624	-132.951744035916	-2.98020981103159	-132.873609057884	-24.3656707655844	105.447055791299	
1948500000	-12.4417707743269	48.7642145258693	-2.9991584837861	-133.011385771123	-2.99035701076344	-132.965805630044	-24.6197143670101	108.044290020101	
1949000000	-12.4245640265843	49.2815288048275	-2.99866525773688	-133.105786354688	-2.99109428459668	-133.144416717912	-24.9303799417808	109.7010041347	
1949500000	-12.3341561311396	50.1130326480688	-2.99651006563455	-133.264230233951	-3.00149849743383	-133.213573494053	-25.170030286183	112.575336355796	
1950000000	-12.3149940879868	50.9029835239953	-3.00802348400514	-133.33680441661	-3.00003436350162	-133.304077740689	-25.3374964313314	115.24843080351	
1950500000	-12.2571495148395	52.0759645268249	-3.00565505218644	-133.442156610054	-3.00719479804283	-133.415965086327	-25.4424257523737	116.84564029296	
1951000000	-12.2052074844025	52.8177203406431	-3.01132427453547	-133.509701669787	-3.00495593735942	-133.510968270432	-25.6120092435876	120.276729548385	
1951500000	-12.1660500319291	53.5021917773079	-3.0077165884872	-133.679855976799	-3.00450372393143	-133.587163932773	-25.7246462074813	123.910294609806	
1952000000	-12.119216949523	54.4156697401723	-3.01432757102117	-133.660221306948	-3.01184213711607	-133.6548029056	-26.0127191578276	125.322318837391	
1952500000	-12.0843098842801	55.0833708687356	-3.02640128294072	-133.783536620614	-3.01084431231317	-133.738905153491	-26.070231433559	128.640653955088	
1953000000	-12.0645407292521	56.1685521481555	-3.02730442401354	-133.821698020803	-3.01869654537818	-133.833437181395	-26.077380347371	132.415275946712	
1953500000	-12.0136104790778	57.0799849054379	-3.01740541823198	-133.933951856881	-3.0172940171638	-133.914902895901	-26.2249739054436	135.185081181746	
1954000000	-12.0113721083658	57.7139198489243	-3.02871144865735	-134.085640647253	-3.02766045652892	-134.023553326019	-26.3033235816103	138.779817140139	
1954500000	-11.9514371885602	58.5094412678924	-3.02800532508519	-134.108827576888	-3.03061124403206	-134.125697807343	-26.2375215215436	140.220680568838	
1955000000	-11.9388351817376	59.4820336734383	-3.03549033080364	-134.192320881494	-3.04355549187134	-134.131374565196	-26.0838718870788	143.814232585356	
1955500000	-11.908501213365	60.2583488497473	-3.03564518342281	-134.286598233928	-3.03629688595902	-134.254089677264	-25.9412255463624	147.914671581874	
1956000000	-11.8881778651219	61.2616713859072	-3.04251549364513	-134.34216152475	-3.0435269572689	-134.371596068085	-25.8382142110475	149.9967706854	
1956500000	-11.8752630968644	61.9669926655357	-3.04229601862405	-134.459188277708	-3.04642230289218	-134.473813730095	-25.8631837199932	152.080977123791	
1957000000	-11.8425961619383	62.8238818206778	-3.05122080364698	-134.571114565503	-3.05632787965075	-134.502779207858	-25.5328756446561	155.193285216129	
1957500000	-11.8606117863234	63.6294489074543	-3.05856324679852	-134.637077084565	-3.05410100119543	-134.647411784656	-25.4828011798121	157.991405530245	
1958000000	-11.83415838419	64.6841522344461	-3.05209805625641	-134.729286354682	-3.05498670118372	-134.663823512671	-25.1294529163003	158.969863535522	
1958500000	-11.7932870582168	65.6225632195211	-3.06727214213412	-134.772094548187	-3.06487977651872	-134.722273104039	-24.9312225569872	161.904181454195	
1959000000	-11.8453665379354	66.3285329484414	-3.06976419057748	-134.883248768275	-3.06913789938164	-134.872908087325	-24.8526338980011	164.743268179947	
1959500000	-11.7645699454487	67.4260494748783	-3.07854176712483	-134.974399555638	-3.06661296649723	-134.906653226643	-24.5365366051972	166.016733337337	
1960000000	-11.7806133232972	67.9242641959812	-3.06685000968172	-134.998783211951	-3.06755759663491	-134.977062792493	-24.3363603403653	168.541860919726	
1960500000	-11.774033706418	68.8981339308078	-3.07834284668472	-135.091581334156	-3.06512444440148	-135.036045411865	-24.1935769837111	169.601482633306	
1961000000	-11.7751119219356	70.0345559913931	-3.08566368196326	-135.186237283637	-3.07755953378493	-135.15568026808	-24.0002904249007	171.152221780282	
1961500000	-11.7591227555188	70.7719426049473	-3.07630081339961	-135.221737318191	-3.07822427942053	-135.226743226428	-23.7721204793909	172.5469167732	
1962000000	-11.7587135296148	71.8017773085307	-3.08159217550348	-135.316731407936	-3.0823290719119	-135.283132375079	-23.5190812106412	173.04502128513	
1962500000	-11.791556920434	72.5321526345786	-3.09032508976095	-135.375519923212	-3.08635097420138	-135.384933630021	-23.2874162684979	174.387100169507	
1963000000	-11.771626685357	73.4105667858983	-3.09411641797515	-135.448927183749	-3.08903544720066	-135.347591210002	-23.1310362816516	175.797962569779	
1963500000	-11.7235605622863	74.156016385987	-3.10572474167237	-135.49741921589	-3.10074534280573	-135.472125978731	-22.9346743566629	177.02484926509	
1964000000	-11.7487187979927	75.1777801798375	-3.10804944250661	-135.613522460468	-3.09656757681763	-135.578889814859	-22.5980173438381	177.528434560126	
1964500000	-11.7648546234241	76.0205065354359	-3.10173952443666	-135.67882238656	-3.10015098774817	-135.625673156462	-22.5175571734303	178.637556943862	
1965000000	-11.7988781758349	76.9541094669314	-3.10236367555111	-135.711778781157	-3.09580085941869	-135.731149680709	-22.4261572583916	179.471957612137	
1965500000	-11.7948798260686	77.911791391367	-3.11076429492934	-135.804108828667	-3.10793964435154	-135.774837772345	-22.0454699760004	179.944644576699	
1966000000	-11.7961768855057	78.8319237735587	-3.11699895913725	-135.825939060576	-3.10544016419334	-135.831953155302	-21.8687562370348	-179.481847837675	
1966500000	-11.8298150142299	79.8687301851863	-3.11474368896947	-135.919160923866	-3.11829980061436	-135.826776364747	-21.6775507050713	-178.446893226792	
1967000000	-11.8491401698623	80.613092811436	-3.11732465017089	-135.947208708325	-3.10978444925424	-135.959107688058	-21.5924325390857	-177.889872972639	
1967500000	-11.8320303234773	81.5274369684748	-3.12521991682115	-136.030621128135	-3.1246763932242	-136.002221967899	-21.4404287876053	-178.546583209192	
1968000000	-11.8333339623853	82.341020071982	-3.12317554130219	-136.092437999664	-3.11983741281551	-136.011062214665	-21.238750629699	-177.831472104666	
1968500000	-11.8849281102181	83.479713560457	-3.12750815191864	-136.134578661037	-3.13299524359179	-136.1374400047	-21.1171267072507	-177.388734709205	
1969000000	-11.9111720126365	84.5716704230472	-3.12051423304374	-136.173794836513	-3.13705090084685	-136.218941827592	-20.9391978723519	-177.436770681094	
1969500000	-11.9104959656137	85.2785000017477	-3.13978511018463	-136.266957514542	-3.12999597113559	-136.238045890311	-20.8321973705839	-176.53481305011	
1970000000	-11.92739256855	86.5789113681019	-3.13468094641794	-136.329556483311	-3.1368061677806	-136.324311028533	-20.5469331087819	-176.279102258207	
1970500000	-11.9413928538486	87.4565801718512	-3.13674998859552	-136.396810374154	-3.13276224961075	-136.30357233278	-20.5397688407694	-176.388374536386	
1971000000	-11.970976743037	88.1250689882957	-3.14195328808874	-136.437920787875	-3.14784840981429	-136.399993608149	-20.3423324465866	-176.374012468011	
1971500000	-12.0132139661888	88.9543588949415	-3.146524935993	-136.471531470056	-3.14417132677399	-136.431549294807	-20.3272189466708	-176.208244043299	
1972000000	-12.015636582204	89.9197394518845	-3.15270551652048	-136.519610443149	-3.13434361221503	-136.470876404337	-20.1935426433493	-176.335440664047	
1972500000	-12.0313589257408	91.0037498630304	-3.14565256959793	-136.624853621212	-3.14117944518813	-136.579372738146	-20.0265278057768	-176.27697111695	
1973000000	-12.0570571457223	92.1841525002971	-3.14762311175822	-136.62614309516	-3.15122599387015	-136.597186898815	-19.9420311993311	-176.338216232704	
1973500000	-12.0907428785573	93.0044830998827	-3.15976508216228	-136.705557955721	-3.15420939111208	-136.678021675864	-19.8572713335344	-176.282596444579	
1974000000	-12.1492301579897	93.9631208345738	-3.14627199283402	-136.751649993728	-3.15701709316757	-136.683868589381	-19.786105131724	-175.713353032276	
1974500000	-12.1241081278361	94.9420124573572	-3.15230762675807	-136.789479379408	-3.16405200793446	-136.784659679137	-19.5968018138971	-175.670950548289	
1975000000	-12.1653021022284	95.9415502112099	-3.16060983220129	-136.801852916094	-3.15133496186307	-136.836353186282	-19.5323514662917	-176.41395506148	
1975500000	-12.200455146801	97.120314769006	-3.15631036725298	-136.830997844875	-3.16454678663201	-136.83506088772	-19.5324859576596	-176.597535226618	
1976000000	-12.23895755017	97.8704278393119	-3.17116060225193	-136.959843056053	-3.1569445676852	-136.872793816864	-19.4650736016781	-176.515831729506	
1976500000	-12.30512286678	98.73927282699	-3.16378387239792	-136.948299388803	-3.15953402109832	-136.983769049765	-19.3033083208074	-176.621972824284	
1977000000	-12.3075859234261	99.9076586468882	-3.16484866606679	-137.085621931777	-3.17368730141267	-136.989622930692	-19.2427235881939	-176.951016211433	
1977500000	-12.3587613272763	100.915718502912	-3.16438605628972	-137.15554225404	-3.16763264868372	-137.048663367345	-19.2318493108918	-176.809124495647	
1978000000	-12.3676439137532	101.854615596111	-3.16791603157398	-137.084109625509	-3.16841925790143	-137.041254694704	-19.108330330732	-177.439949401558	
1978500000	-12.4329846707283	102.843762003366	-3.16639169620446	-137.194616485709	-3.17977220190937	-137.113207915272	-19.0992031082976	-177.606817382199	
1979000000	-12.4420490440081	103.760778942128	-3.18168029838447	-137.234654271434	-3.16996229647917	-137.138491996156	-19.028077940263	-177.781583291824	
1979500000	-12.4664196265346	104.852742132798	-3.17420521726544	-137.253714597764	-3.1713570089352	-137.18331156816	-19.0278645524608	-178.173261314055	
1980000000	-12.5457621284461	106.118121677158	-3.18443054992255	-137.294692758099	-3.16411399612586	-137.214587812369	-18.9039940408239	-178.238923039594	
1980500000	-12.5874795846514	106.909836343808	-3.18296284221449	-137.362573620859	-3.16664819470726	-137.283967727609	-18.8932930833523	-178.5342643436	
1981000000	-12.6282556066844	108.052015849227	-3.17659225518921	-137.391666772333	-3.1770802736903	-137.342804187814	-18.8873253103684	-179.380528355813	
1981500000	-12.6536553236351	108.798554515194	-3.18803643290184	-137.432672855833	-3.17960175384579	-137.36744901558	-18.8667232118338	-179.12648695714	
1982000000	-12.7234467206089	110.141286277535	-3.17506938839737	-137.461056100307	-3.18279269570067	-137.362266443304	-18.7701103552215	-179.644335493002	
1982500000	-12.77243818539	110.930104656872	-3.16980650396628	-137.473141935994	-3.18467757845684	-137.405914867897	-18.8720145853957	179.661754422725	
1983000000	-12.7732992535445	111.64886789851	-3.19923164752622	-137.495072658453	-3.18866396301932	-137.43024579442	-18.8809022533176	179.458141149286	
1983500000	-12.8786970611161	112.986118812193	-3.18064464800117	-137.564449435261	-3.18143418774986	-137.558748566994	-18.7380651983719	179.096608704908	
1984000000	-12.9164137948407	113.885096825886	-3.18687431871142	-137.606806991163	-3.18103046231022	-137.542858581694	-18.7568579035553	178.893396747188	
1984500000	-12.9782217002862	115.092321305714	-3.19570739492121	-137.658478563909	-3.18920194268832	-137.607292887135	-18.7822704792316	178.123697940805	
1985000000	-13.0310971961877	116.230921691161	-3.19493119338928	-137.695955148053	-3.18416167870552	-137.623544341056	-18.7513157592066	177.63474189957	
1985500000	-13.0425248299054	117.097343057139	-3.1926921297156	-137.67947563504	-3.19929032484089	-137.73398296874	-18.7139722415348	176.843496043461	
1986000000	-13.1089961049042	117.986716777299	-3.20035698227942	-137.716632474453	-3.18622285088242	-137.779535535965	-18.7495289387674	176.289204155919	
1986500000	-13.201824870266	119.225533929948	-3.19478406154147	-137.745962399762	-3.19097684795753	-137.759261695553	-18.7265061862694	176.570744717155	
1987000000	-13.2434638155801	120.042203366104	-3.19160402346521	-137.828544018591	-3.18580870265182	-137.74106977232	-18.7579184067029	175.559474537629	
1987500000	-13.2906217758722	121.293361626206	-3.19698867754802	-137.850006121562	-3.19168405373698	-137.779355701464	-18.7308482691295	175.042034656038	
1988000000	-13.3280505217309	122.229688419594	-3.20101886801373	-137.891678219692	-3.19049007303689	-137.870530593915	-18.7976767103569	174.463552855914	
1988500000	-13.4377800985555	123.445833784731	-3.20088822936064	-137.934629575086	-3.19241235687688	-137.940179482274	-18.7782034327311	174.163801980468	
1989000000	-13.4700215564516	124.355956555712	-3.19777745005739	-137.970524670354	-3.19879795654072	-137.92293222217	-18.7853778380859	173.07535320769	
1989500000	-13.5240446297259	125.480594537942	-3.19765237674013	-138.014710883797	-3.19694078011329	-138.021772013088	-18.7666149183839	172.656465514274	
1990000000	-13.6206561419293	126.373274416102	-3.19154015865777	-138.00776797093	-3.20126840789514	-138.038536119699	-18.8728299915691	172.114390172195	
1990500000	-13.6484986058194	127.79004963501	-3.20522921146382	-138.108381765702	-3.19290056405527	-138.106522046676	-18.794025850609	171.394881370085	
1991000000	-13.7213280397226	128.813988945134	-3.20337830496941	-138.158391516878	-3.1889113024156	-138.092783537131	-18.8426287423113	171.102179165996	
1991500000	-13.7954391259124	129.686225107376	-3.20525886043041	-138.120704509767	-3.19503404904141	-138.123840638214	-18.827683561277	170.395969050451	
1992000000	-13.9147083286972	130.87316649548	-3.20705407856484	-138.191294050267	-3.2029516351943	-138.152813711603	-18.9648768534468	169.607318234677	
1992500000	-13.9158502076765	131.991851391501	-3.19883432182295	-138.30241008563	-3.19885284443196	-138.207477847661	-18.881516617473	169.163541908206	
1993000000	-14.0185824648733	132.734154606249	-3.2065846121407	-138.278711678959	-3.20915438715582	-138.217151840338	-19.0100248133218	168.087394119339	
1993500000	-14.0390178562391	134.057514496192	-3.2065709586245	-138.336764868149	-3.20125984899706	-138.247878501239	-19.0136738460616	167.648875133587	
1994000000	-14.1191961197167	135.449921308484	-3.20007214991543	-138.394753726419	-3.20576428149321	-138.319780191085	-18.9757753828663	166.642073630671	
1994500000	-14.2088618816169	136.002190538436	-3.21770131173883	-138.404053318343	-3.20034979117102	-138.354132402885	-19.1035582167576	165.794347121683	
1995000000	-14.2898341970571	137.378511977948	-3.21238116786836	-138.38542557101	-3.20265896195159	-138.391849473175	-19.0746362658514	165.256039629506	
1995500000	-14.3795099332594	138.416459047849	-3.20901796158298	-138.429527038269	-3.2041612598729	-138.425050375261	-19.1177276791912	164.923454295716	
1996000000	-14.4277961177308	139.633289305458	-3.2076064588123	-138.470713138056	-3.20461944851157	-138.500529707608	-19.1612075857563	163.983908174777	
1996500000	-14.531577256866	140.575613158321	-3.20766579989151	-138.452489794739	-3.1991611126943	-138.495892459031	-19.2326069647361	163.264632296172	
1997000000	-14.6150906922232	141.696512232353	-3.20839143797678	-138.596123936918	-3.20924201423944	-138.609741706257	-19.2854083253113	162.481200289017	
1997500000	-14.6689481341089	142.805055698191	-3.21028680334753	-138.590322520691	-3.21164454274915	-138.526309837763	-19.3259394835419	161.778006419538	
1998000000	-14.8111303313093	143.869907056825	-3.21720101854369	-138.636242577627	-3.20885295499749	-138.58411455523	-19.3527795884633	160.862487570355	
1998500000	-14.8079181959763	144.825058850198	-3.20690407458548	-138.643731382813	-3.20427254940715	-138.638662080986	-19.3561509931428	159.686328444973	
1999000000	-14.9114728502765	146.17805929896	-3.20505970964029	-138.672711282144	-3.20803150521216	-138.731238697382	-19.4609080905343	158.896986573969	
1999500000	-15.032828150924	147.032368789528	-3.20973068111913	-138.696123348477	-3.20081945392413	-138.687825111567	-19.3797817806806	158.270829786879	
2000000000	-15.0915762480725	148.476872017517	-3.20821062823547	-138.772434139119	-3.20488544526877	-138.700177924981	-19.4625051631705	157.654390573143	
2000500000	-15.2273569909005	149.64308592792	-3.21030405446607	-138.821490712095	-3.21375717845473	-138.795417547381	-19.6317691324675	156.766121955305	
2001000000	-15.2496297353405	150.323893713279	-3.19867033586153	-138.827355303039	-3.20143284524336	-138.850174739142	-19.5873616224111	155.877040784082	
2001500000	-15.3967821490205	151.716388339659	-3.2121625715699	-138.873596415158	-3.20128350644432	-138.859040632842	-19.6471529652077	155.014031608836	
2002000000	-15.4555683829954	152.886826131121	-3.20721701825849	-138.924543239329	-3.20198872767229	-138.94834017608	-19.6880278760715	154.557343855361	
2002500000	-15.5795057470279	154.09615011642	-3.20811213704601	-138.974881501267	-3.20468576318518	-138.924102827167	-19.7370594643451	153.403408268929	
2003000000	-15.6276709104424	154.970230925476	-3.21304743874656	-139.02061617294	-3.20518970162646	-139.012614458591	-19.8190420908431	152.531195710163	
2003500000	-15.7844086887064	156.10692829314	-3.2087303773865	-139.039544664871	-3.20465052126494	-139.054443765068	-19.825336559346	151.691021038218	
2004000000	-15.9075590309439	157.168841304223	-3.20054008559204	-139.076265863173	-3.20287060425324	-139.045029953574	-19.7922528307272	151.209580910789	
2004500000	-15.9523613258333	158.619690552883	-3.21219313701573	-139.147949199741	-3.20398040094983	-139.089135001087	-19.9295442010293	150.430503786241	
2005000000	-16.071285687828	159.85301694912	-3.19345061517241	-139.147935995809	-3.19705943118962	-139.163144866204	-19.9763453123813	149.156173280956	
2005500000	-16.2100768982713	160.98459501703	-3.20923992637051	-139.202933650863	-3.2054683457296	-139.225218843052	-20.0688714088238	148.330011194095	
2006000000	-16.314469754738	161.963976460592	-3.20362087356841	-139.21831229363	-3.19496932326796	-139.263581626253	-20.1544633508111	147.965152179615	
2006500000	-16.370877008014	162.951390462488	-3.20530270432274	-139.288839071215	-3.19114678731709	-139.223227752151	-20.1722982735183	146.891144470213	
2007000000	-16.4882879918712	164.605104379554	-3.20511676597085	-139.295860316352	-3.21450579972882	-139.367933411982	-20.2051022529211	146.387827760187	
2007500000	-16.6816341197073	165.739925472595	-3.19988380032456	-139.293240955586	-3.20787544832659	-139.395500346837	-20.3158055259327	145.375300813524	
2008000000	-16.7058797218583	166.595005811909	-3.20719410594136	-139.401073633393	-3.2036323809328	-139.407190146963	-20.3216241668684	144.359129455224	
2008500000	-16.8763190793594	168.18690043465	-3.20736726451435	-139.439303424754	-3.19662964910671	-139.474194221743	-20.3726702010345	144.05798801186	
2009000000	-17.0043459726089	169.501850832021	-3.21215615285474	-139.510665883226	-3.19393356362157	-139.47633252221	-20.4440226230908	142.889837900751	
2009500000	-17.0617510587548	170.388639159354	-3.20345230856467	-139.547044822207	-3.20111294831389	-139.56540022443	-20.3930344057193	142.49872631888	
2010000000	-17.1975023101525	171.37242597615	-3.19819296984193	-139.54283128666	-3.1997762906751	-139.611181914261	-20.5199055306569	141.215603992826	
2010500000	-17.338343301193	173.084861464305	-3.20353619995323	-139.59511817838	-3.19346332100295	-139.590442154863	-20.5584982438997	140.397324733726	
2011000000	-17.4663287627751	174.072884707528	-3.20498423882646	-139.658335411316	-3.1957503108895	-139.68340601778	-20.6056393553906	139.822959845142	
2011500000	-17.6500816768085	175.224267632963	-3.20022127996068	-139.682215260888	-3.20122009383476	-139.66559688288	-20.7403061039802	139.192103193891	
2012000000	-17.7248871655707	176.665558453652	-3.20791906371418	-139.728050092369	-3.18379972693243	-139.767834506697	-20.7715368196108	138.696259367519	
2012500000	-17.8674704449593	177.745610777776	-3.2026084842447	-139.83438678021	-3.20114367080455	-139.78739701349	-20.7632320797231	138.158821594651	
2013000000	-17.9724015869379	179.234308006057	-3.21070646311333	-139.912296459413	-3.19576520887937	-139.855286588015	-20.7990447053852	137.82086242009	
2013500000	-18.067253184762	-179.581055386358	-3.1980491087716	-139.926803592552	-3.19525953058146	-139.869423954459	-20.8633150573055	136.667710690591	
2014000000	-18.2300173233478	-178.024946106027	-3.20511732829572	-139.914674027061	-3.18895306055893	-139.948886701129	-20.8888839830387	135.754752503852	
2014500000	-18.4057576519534	-177.546882376858	-3.20590559316137	-139.998364777541	-3.19672222577667	-140.010022087191	-20.9993582561992	134.518376533376	
2015000000	-18.5036074407978	-176.135071180636	-3.19471400596128	-140.034448263141	-3.19499347215944	-140.049611383999	-21.0952195273334	134.543072435482	
2015500000	-18.72154787134	-174.573859235658	-3.1943958757016	-140.081705562258	-3.19337004561942	-140.09931320055	-21.2019677397421	134.178509090083	
2016000000	-18.8048006856841	-173.232612301288	-3.19428590790916	-140.156471543567	-3.19379597335587	-140.122260976571	-21.1688424123113	133.157752692991	
2016500000	-18.9199346446125	-171.609771450768	-3.19439817897568	-140.174346160898	-3.19697764310129	-140.183178065754	-21.2291970631334	132.958010755804	
2017000000	-19.2158381060995	-170.599118639601	-3.18931580571966	-140.232740032696	-3.18807547918747	-140.241117687843	-21.3307795726373	132.435344536268	
2017500000	-19.315552705226	-168.677428014052	-3.19882489057756	-140.233172241696	-3.18841155465039	-140.262754277986	-21.4834802337878	132.463682499565	
2018000000	-19.5273810701408	-167.27601918739	-3.20021518671601	-140.328338546133	-3.19456101292354	-140.324856558918	-21.4897247454148	131.269133354715	
2018500000	-19.6524139583346	-166.083132020373	-3.19875512989298	-140.416523117727	-3.21276314848951	-140.410041570843	-21.6284626154331	130.920733844066	
2019000000	-19.8025121728	-164.772298802746	-3.20021834225983	-140.439857330486	-3.19392436076908	-140.454119279478	-21.6964025816491	130.973324403166	
2019500000	-20.0501382700111	-163.428427808914	-3.19657581636843	-140.496585676052	-3.20093038521272	-140.516345039457	-21.7798198921632	130.491276921969	
2020000000	-20.134477264136	-161.596243196142	-3.19534817793364	-140.51023767079	-3.18156992041218	-140.572553917795	-21.8869439744571	129.96370954864	
2020500000	-20.2948608138195	-160.59711703611	-3.19740597338744	-140.603806609625	-3.19797466419646	-140.577284718002	-21.932348814453	129.656485739253	
2021000000	-20.5373000272926	-158.64283870347	-3.19404303763352	-140.686621006417	-3.19204339474966	-140.668904229657	-22.0641558575541	129.868589649533	
2021500000	-20.6503059044623	-157.505776765889	-3.19464816189175	-140.703759959248	-3.18565392651956	-140.696235727771	-22.0554795616766	129.483337127362	
2022000000	-20.8987127046444	-156.061980901682	-3.18543965642693	-140.762920883332	-3.19865871618471	-140.796409062374	-22.193655998182	129.073351453776	
2022500000	-21.1099416458605	-154.40758241928	-3.1947212821178	-140.852985225834	-3.1889787999015	-140.76190966705	-22.2936368984956	128.909452313371	
2023000000	-21.2442152901006	-152.580001405832	-3.1994446663877	-140.853289593864	-3.19287413337781	-140.888704487986	-22.4722327204279	128.776225017034	
2023500000	-21.3539823325515	-151.075129210984	-3.19091794042148	-140.895551547585	-3.1894894694956	-140.987440315476	-22.4958614942152	128.652366051419	
2024000000	-21.6176851696744	-149.519877545008	-3.18687332451955	-140.960901476115	-3.19151742768549	-140.959894147435	-22.5816795581583	129.438856028555	
2024500000	-21.9035032820642	-146.905316252764	-3.19233461411314	-141.041094393834	-3.1900430346353	-141.08510045138	-22.7911369607992	128.892150986504	
2025000000	-22.085619412204	-145.856919756356	-3.1858703028691	-141.057074618587	-3.19950689362638	-141.047351699706	-22.8251651161963	128.337838588548	
2025500000	-22.2404918336488	-143.803188809556	-3.18578493596711	-141.106213314272	-3.19117367148213	-141.163715423333	-22.9300755632537	128.756630121781	
2026000000	-22.491255870936	-142.761125515388	-3.18531810353882	-141.237676717457	-3.19202706265187	-141.282163017881	-22.9733280115065	128.519830571968	
2026500000	-22.6655277029634	-140.914347106454	-3.18893317452434	-141.312478023879	-3.1943091590553	-141.291436500736	-23.0723290908993	129.79475243889	
2027000000	-22.7945280550869	-138.71526637389	-3.18680366103957	-141.321728022471	-3.18037346024639	-141.312986829185	-23.2386173812896	129.542344120547	
2027500000	-23.2353434704719	-137.131434441503	-3.18412638136886	-141.407976832252	-3.17892815724962	-141.402650617509	-23.3657675332682	129.174286481864	
2028000000	-23.3364589127575	-134.110038756443	-3.19679414128649	-141.460338752743	-3.18615444752104	-141.449736330651	-23.5617035018045	129.940865611271	
2028500000	-23.4728765651737	-133.449378368585	-3.18807221705858	-141.518471632831	-3.17746050241952	-141.539016409277	-23.6482360408257	130.366867117949	
2029000000	-23.8189312992682	-130.711944246899	-3.19321908116669	-141.583626421466	-3.18788424524053	-141.575950502085	-23.7337586231999	130.355044044613	
2029500000	-24.0043613472152	-128.606530306743	-3.19005073400513	-141.691224998526	-3.18838277672808	-141.619659200841	-23.8795443777886	131.482109679726	
2030000000	-24.19406016615	-126.557351495729	-3.19211991041453	-141.711418884894	-3.18324415663864	-141.809130280291	-23.9981470754066	131.336658245934	
2030500000	-24.4082014256351	-124.779693597452	-3.18672118000551	-141.784323019344	-3.18218381681129	-141.825425060067	-24.0833424589016	133.614518075356	
2031000000	-24.5731808481184	-121.864950558365	-3.20076235356346	-141.843542581633	-3.19440673577283	-141.836301836012	-24.3287030421891	134.194271532695	
2031500000	-24.9579176811088	-119.658592593559	-3.19082360206661	-141.911374620503	-3.18191837452951	-141.944579570426	-24.315622549928	134.054804735713	
2032000000	-25.0910916218372	-117.570664073561	-3.19168484522895	-141.963456648424	-3.17939131010204	-141.937811567816	-24.5711397536741	135.311633683816	
2032500000	-25.2411461529383	-114.763548115459	-3.20234506990913	-142.055736367744	-3.18796923926909	-142.032608570463	-24.5836690848392	137.553023988422	
2033000000	-25.4135136515567	-112.653958878333	-3.19484718149294	-142.003539413458	-3.188987897161	-142.103356345813	-24.658776173163	137.466145188264	
2033500000	-25.6155317311951	-109.666233475966	-3.18689314468476	-142.16242517589	-3.18754538884059	-142.182944429543	-24.9628497066611	139.601251707767	
2034000000	-25.9735120611167	-107.455148202123	-3.19378445458455	-142.259556367657	-3.18459298401424	-142.204515858418	-24.9003654609304	140.418109325009	
2034500000	-26.2406440493482	-103.425278096793	-3.1885857738554	-142.294256649254	-3.19572543377934	-142.314003641162	-25.1793481208626	141.791349692243	
2035000000	-26.3760843823061	-100.906616631822	-3.19695091711816	-142.362197301141	-3.19088549211642	-142.354472376222	-25.2354356265363	143.411075248811	
2035500000	-26.8161480105068	-97.7137241776015	-3.20183582841466	-142.452475477938	-3.19352839080213	-142.433746822253	-25.1935515781683	144.112332759567	
2036000000	-26.7435811652991	-95.8616740536257	-3.18808298899281	-142.542687318751	-3.18161179945367	-142.529541994516	-25.4314785353805	146.992801413008	
2036500000	-26.8699325745985	-93.2766058351119	-3.1944871329909	-142.6001296523	-3.19370389212323	-142.626302888261	-25.4191107345651	147.967631665916	
2037000000	-26.974450656975	-87.9478813624557	-3.19433330984556	-142.631394738406	-3.19972921801411	-142.675460288035	-25.5142156765658	150.236775254452	
2037500000	-27.3047325384074	-86.1138666543455	-3.19296077043553	-142.690450018026	-3.19034162965752	-142.674632727996	-25.4434728320129	150.978488992748	
2038000000	-27.5408960150467	-82.6235885871637	-3.19636646564664	-142.808677739847	-3.1948552049284	-142.834113456157	-25.6829916905058	153.201766043389	
2038500000	-27.6766659732383	-78.6292299517089	-3.19762521894951	-142.843388390544	-3.18929225971083	-142.846491520002	-25.6445573625026	155.872833751429	
2039000000	-27.8381526473646	-75.9503593547006	-3.19341350257055	-142.9748034028	-3.19578838756654	-142.956468270108	-25.6187040859313	158.365067811315	
2039500000	-27.8412913604991	-72.6911947882175	-3.19450515169915	-143.005436669336	-3.19214512640467	-143.05422614062	-25.5695212664328	159.955999052419	
2040000000	-27.8341906255032	-69.0284786508565	-3.19194835522922	-143.08141919657	-3.1876843750934	-143.071899170728	-25.5654234591994	161.579043854042	
2040500000	-28.3041151473775	-64.2167258899702	-3.19806889206115	-143.162734843862	-3.19527425618577	-143.162820651174	-25.6105394822576	163.194562251584	
2041000000	-28.1684857374988	-61.0154379459745	-3.19691274799012	-143.128566611552	-3.19778233365707	-143.222683496076	-25.555131054148	165.217977155957	
2041500000	-28.5173550580751	-55.8636431241224	-3.20494668643357	-143.339206019759	-3.18975522125906	-143.358036769135	-25.3977927642395	167.105079327382	
2042000000	-28.2594605275745	-52.8369359093358	-3.19870549781906	-143.336791020566	-3.19083608893802	-143.370092912212	-25.3454834216349	169.740776632433	
2042500000	-28.526380516121	-50.5242870927978	-3.20878994284719	-143.450766126941	-3.19501433408544	-143.446322107953	-25.0822627079342	171.10089751487	
2043000000	-28.347294813945	-45.840633445357	-3.19484834549	-143.535434092867	-3.19492420943928	-143.474710710092	-25.1974310718289	174.543407741872	
2043500000	-28.2874229016133	-41.3198334857276	-3.19977458314124	-143.619126027961	-3.19324944746849	-143.639953881994	-25.1166525586078	175.515501825956	
2044000000	-28.0393672173209	-39.2974981636121	-3.20181993261493	-143.745527355776	-3.2059899065542	-143.647037898263	-24.7625925034833	177.938935431337	
2044500000	-28.2908077297545	-36.024120337959	-3.2032747305775	-143.698057550879	-3.19603912535689	-143.733463927751	-24.7087483067893	179.03427454705	
2045000000	-28.0559921779629	-31.9402385281813	-3.20974976274631	-143.87300741924	-3.19616993399485	-143.85720534591	-24.5531038962131	-178.644788140047	
2045500000	-27.978356611815	-27.6535717815805	-3.21206940008367	-143.855367349147	-3.20396147493157	-143.866959924111	-24.3413616451936	-177.836316825095	
2046000000	-28.0662116881203	-22.3288227479984	-3.19890567020303	-143.918641220698	-3.20848387611933	-144.014124187475	-24.1813061775574	-176.237342756764	
2046500000	-28.0387079818285	-21.3085715962033	-3.21421883241954	-143.995307486223	-3.20083360714698	-144.014590636873	-23.9647195971546	-174.135638559128	
2047000000	-27.6247015945043	-17.0576190458579	-3.21240430002621	-144.086513317033	-3.21225988865977	-144.130330978917	-23.6879520101265	-173.402826720412	
2047500000	-27.4912063881279	-13.3370577833281	-3.21782011274048	-144.266600381284	-3.21130691860017	-144.168041651053	-23.5107755237348	-172.212073402459	
2048000000	-27.4362524373965	-9.93487045171949	-3.21679794575675	-144.289233743077	-3.21009535117464	-144.310231556016	-23.3451666683119	-170.562072639112	
2048500000	-27.0906431714702	-6.98561056113493	-3.21173547006013	-144.364604861512	-3.21129963645005	-144.316254270827	-23.2173877395429	-169.239716592888	
2049000000	-27.2176916116347	-4.07425610365224	-3.20800841477327	-144.407988160707	-3.21935206377825	-144.403754605644	-22.9992733290731	-168.164736578869	
2049500000	-27.0027759024572	-2.40237400773513	-3.2160643792256	-144.528069824722	-3.20668499221905	-144.518723044489	-22.7790434811124	-166.422967876311	
2050000000	-26.6386575031741	2.47302137641688	-3.21223975709946	-144.587825932729	-3.21795073896282	-144.582856389667	-22.6418205086263	-166.237823732453	
2050500000	-26.4911242309828	3.1937407204617	-3.22039026446368	-144.651258096324	-3.22857042398138	-144.631147960357	-22.3784011907599	-164.749004500943	
2051000000	-26.4788698527266	6.83038260372754	-3.22098286958837	-144.777665872096	-3.21956359255999	-144.774103759605	-22.1867374991681	-163.934692885541	
2051500000	-26.282148717123	8.3332793547402	-3.22286269619576	-144.884032794313	-3.2159947547277	-144.825980021485	-21.9452253579426	-163.697713136739	
2052000000	-26.0281006942362	11.0507633694958	-3.22958570201936	-144.912312849973	-3.22277430211199	-144.911116806827	-21.6917817551057	-162.67560307071	
2052500000	-25.9073207403332	14.7631953799974	-3.22719053004209	-145.014467799118	-3.23083249029843	-145.010378570005	-21.5259832231969	-161.968132980461	
2053000000	-25.585091574027	15.1959403216481	-3.22676815095825	-145.093368207012	-3.22660455720932	-145.120521887315	-21.3930077103843	-160.860368784577	
2053500000	-25.5202352101945	17.4961579293348	-3.22406604463507	-145.158665743352	-3.226092932744	-145.154885873591	-21.140391550819	-160.185719815661	
2054000000	-25.2528713744167	20.891456298256	-3.22829319924663	-145.204074079805	-3.22073194725763	-145.208566598919	-20.9386796623352	-159.493213371127	
2054500000	-25.2340225448049	23.4199406584678	-3.22514424844736	-145.317598905058	-3.2271483057917	-145.306907313226	-20.7761653637065	-159.40509515702	
2055000000	-25.0342217020229	25.7402270050883	-3.22999803045018	-145.371943301653	-3.22578344784578	-145.373652584127	-20.5886795178183	-158.912897053481	
2055500000	-24.8346822607396	27.6023367345105	-3.23169726095328	-145.398600200515	-3.23613989005346	-145.433700671296	-20.3935148915065	-158.427478341656	
2056000000	-24.5506643380893	29.8342020362451	-3.24036055732857	-145.550204333718	-3.22891669726826	-145.526461800528	-20.3341969845799	-158.097225845134	
2056500000	-24.4699176601483	30.8960229499842	-3.23046092440036	-145.614920530567	-3.23420603498348	-145.636970534415	-20.0415427293925	-157.495011027918	
2057000000	-24.1731105366594	32.8975468242184	-3.24517633292156	-145.696397603931	-3.22634537209461	-145.701135066531	-19.9101035856115	-156.678492394871	
2057500000	-24.1223208748994	35.0226150518166	-3.23382388266749	-145.752565789241	-3.24448360030774	-145.719012575041	-19.7431604784319	-156.783096633968	
2058000000	-23.8779126076988	39.0464073718771	-3.23860287074698	-145.855986492771	-3.23075941071409	-145.858706723098	-19.5264439457867	-156.815977229302	
2058500000	-23.7452389591971	39.3072042999122	-3.24260750366192	-145.933688620145	-3.24468038741161	-145.937839404059	-19.4263326935798	-156.674250951814	
2059000000	-23.5308572092559	41.8495814907804	-3.23934285200598	-146.002263108524	-3.2306274086819	-146.01093845373	-19.2484179873618	-155.769148945742	
2059500000	-23.6029368921277	43.5822621780184	-3.23938107904373	-146.073741890529	-3.24868326034079	-146.01605208013	-19.0927318422917	-155.976411892721	
2060000000	-23.285034719115	44.6097134124082	-3.24221216333707	-146.130086031318	-3.24019088524454	-146.12882797707	-18.9671454311947	-155.48355114358	
2060500000	-23.1872746429731	46.921141472776	-3.2435600181824	-146.249244849105	-3.23638233584618	-146.268994813531	-18.8371859303597	-155.308933256946	
2061000000	-23.0232468291779	48.4475512723052	-3.24711502104115	-146.307952921605	-3.24756059051747	-146.301494876623	-18.7236441573234	-155.546129239707	
2061500000	-22.810816575255	50.2932316079428	-3.24775362521807	-146.397671330308	-3.24390979578125	-146.36056553913	-18.556448466635	-155.358105846191	
2062000000	-22.682613834793	52.4286309614286	-3.25737776410103	-146.461447819282	-3.25549258392066	-146.458019614946	-18.4249867573712	-155.275841328133	
2062500000	-22.5354743002696	53.1151286933752	-3.24959797983373	-146.499387665239	-3.25441966450012	-146.565556940715	-18.3243940834456	-154.893364542412	
2063000000	-22.4533881331281	55.9335987830731	-3.24936715528091	-146.620872790623	-3.25203276191075	-146.60683227809	-18.1948996802485	-155.207505847915	
2063500000	-22.2633072578986	56.8492281725345	-3.26089601767617	-146.724360361812	-3.26135194983022	-146.736732589251	-18.0886389426566	-154.858314629423	
2064000000	-22.1753630148292	57.6680029072123	-3.26017351114906	-146.761754825942	-3.25767134074838	-146.753814672628	-17.9230221735888	-154.391348401537	
2064500000	-21.9879607972402	60.1846411395574	-3.26035151998373	-146.884281063955	-3.26254968584965	-146.823041497758	-17.7810911352716	-154.82419306329	
2065000000	-21.819037569456	61.4841850954197	-3.27297363211029	-146.887123292399	-3.25681024562503	-146.942481538893	-17.7264512891637	-154.710892102607	
2065500000	-21.6720509517866	63.0520300780625	-3.2607271523347	-146.970813989233	-3.25618140048809	-147.021776479666	-17.6432295092869	-154.541667718974	
2066000000	-21.4185942156744	64.4273810430987	-3.26815521295795	-147.054403704203	-3.2594680788243	-147.101471590944	-17.5230751568794	-154.777443970935	
2066500000	-21.3602055375683	66.808886847334	-3.25798826039656	-147.156322637554	-3.26580210050172	-147.178296772986	-17.5165851146388	-155.16689961698	
2067000000	-21.3257481651747	68.0125459862867	-3.26672391427209	-147.28014939846	-3.26190862852804	-147.220848592434	-17.3554207333445	-155.11303005507	
2067500000	-21.176935274824	69.2430415642292	-3.26768055797524	-147.289082501341	-3.27071971916357	-147.298210681599	-17.2731913450266	-154.876132932351	
2068000000	-21.0933061296982	71.2757615859588	-3.26156128198112	-147.450218046604	-3.27117220154354	-147.361206588811	-17.1914759793548	-154.517531262533	
2068500000	-20.8765286271085	72.1170644510845	-3.27502396777759	-147.477583942258	-3.27057260721521	-147.422687385639	-17.1202949700513	-155.033384232851	
2069000000	-20.7455095167472	73.8808311172253	-3.2767031912481	-147.526397927674	-3.27294931198292	-147.503061349045	-17.0380186566374	-154.851398069218	
2069500000	-20.6394149054201	74.8924345460951	-3.27220464737165	-147.609674613234	-3.28043151790808	-147.591210683679	-16.9059430661045	-155.481321508181	
2070000000	-20.5678603112066	76.6368390611184	-3.27904251900112	-147.758275475742	-3.27615023273768	-147.668385691472	-16.8914096825236	-155.42468585541	
2070500000	-20.3989048036004	77.6459733373771	-3.28917139564013	-147.812852745509	-3.27908790920827	-147.694893515812	-16.7440081833679	-155.701870228106	
2071000000	-20.2489905403595	78.7893848379854	-3.29059889599706	-147.846679780401	-3.27761861525094	-147.812462851509	-16.7580860061987	-155.494018326933	
2071500000	-20.1249913559781	80.773156718613	-3.28373975574299	-147.928916319201	-3.27249434453027	-147.874970215354	-16.7111910618324	-155.952193538566	
2072000000	-20.038904691035	82.0169248139735	-3.28703198538848	-147.998266571678	-3.28305330697254	-147.992410748362	-16.6348723819483	-155.768416539661	
2072500000	-19.9088504902208	83.7607062828759	-3.28196484589737	-148.063274167979	-3.2924270659574	-148.007334809355	-16.5386730432004	-156.16566333104	
2073000000	-19.8294377993446	85.0448945568375	-3.28562281046801	-148.063710309534	-3.29010474129191	-148.123297402044	-16.5147672166638	-156.201927737348	
2073500000	-19.6835745709682	86.2307621299276	-3.30095428464575	-148.133331355297	-3.29354826206383	-148.14584132046	-16.4489876424995	-156.278186751444	
2074000000	-19.6031559559189	87.7605120263956	-3.29673939923293	-148.2676797433	-3.28797255670263	-148.233434368407	-16.4601309341813	-156.514182412521	
2074500000	-19.5218980748947	88.6510928875727	-3.30394282187119	-148.351144394026	-3.28993766390071	-148.312157093391	-16.3178724353986	-156.990482769876	
2075000000	-19.4196500001543	90.0351034365657	-3.29044826682323	-148.453975124503	-3.29270867746244	-148.421689289401	-16.3408377192122	-156.723181190842	
2075500000	-19.2724053564877	92.0431110483022	-3.29979652320345	-148.487852902361	-3.28928361705968	-148.395024419852	-16.273674004167	-156.860561210222	
2076000000	-19.1993771971835	92.9008470107374	-3.29877310164555	-148.57455069127	-3.29688888559002	-148.484225332009	-16.2161796036516	-157.319386264741	
2076500000	-19.0759097556151	93.8529895264568	-3.30279664774909	-148.632143014329	-3.30144311444918	-148.637968606933	-16.2892269913582	-157.536549281768	
2077000000	-19.0039049966383	94.7151507974716	-3.30608715809677	-148.692030637016	-3.29705885025128	-148.632566111639	-16.2165256128979	-157.296999835901	
2077500000	-18.8549549703071	96.753151069374	-3.30546684444972	-148.765419484234	-3.29544854300194	-148.667340303796	-16.1761483060486	-157.676610301521	
2078000000	-18.7566732971605	98.2603921721358	-3.31234532319204	-148.840991768606	-3.31102270757849	-148.823844340898	-16.157387547515	-158.444575196088	
2078500000	-18.711955437338	98.6917974061842	-3.31373634453922	-148.87652703208	-3.30403675162776	-148.856634311237	-16.1518206980258	-158.297258988049	
2079000000	-18.645586805816	100.230876645326	-3.31075223020031	-148.986986675982	-3.31297927311303	-148.97660303452	-16.0995058112451	-158.357557342143	
2079500000	-18.5747826553117	101.6026264799	-3.31931104456125	-149.049487378786	-3.30522323729067	-148.983616124486	-16.0823417994587	-158.523912782303	
2080000000	-18.4359123138099	102.529225970887	-3.31661737158321	-149.136222818529	-3.30881165856264	-149.167544343267	-16.1020159843654	-159.030511195358	
2080500000	-18.3639673899784	104.073183851361	-3.31482861114633	-149.16838413517	-3.2961853752374	-149.132331593151	-16.0322015450493	-158.875898291838	
2081000000	-18.286953729591	105.224744330317	-3.31808847316427	-149.264761635299	-3.3108996579648	-149.19078826961	-16.0766300124536	-159.553250778751	
2081500000	-18.1667219462176	106.060281137468	-3.32114086778401	-149.296166885482	-3.320454462782	-149.278368889577	-16.0769130476706	-159.883233841473	
2082000000	-18.0516662237308	107.358214101281	-3.32598098825546	-149.337917729528	-3.31274590318231	-149.344638914322	-16.0489150666608	-160.167236103275	
2082500000	-18.0097289083148	109.084065910652	-3.31158825738963	-149.426504502124	-3.31489567820064	-149.369235648955	-16.0684365333978	-160.13211366346	
2083000000	-17.9747455448997	109.919057942987	-3.31868885670327	-149.528653068825	-3.32575030093176	-149.477088196628	-16.0627355041013	-160.647522490644	
2083500000	-17.8973980309288	111.341191221982	-3.3343998842522	-149.608919370465	-3.31830127372059	-149.463775645209	-16.0671054359624	-160.97337999404	
2084000000	-17.8152429801822	112.427629829128	-3.33235536367418	-149.653809098428	-3.31802528183527	-149.624718707656	-16.0036732496131	-160.912376832139	
2084500000	-17.686335546295	113.278936389316	-3.33473271503594	-149.736090526719	-3.32213641616325	-149.640706759892	-16.1246325041578	-161.186827649078	
2085000000	-17.6233474574891	114.773285702078	-3.32709177448162	-149.812475379379	-3.33163468433077	-149.693979532303	-16.0432243128262	-161.790693774829	
2085500000	-17.5594401783207	115.641581926865	-3.33172593560401	-149.834366152747	-3.31991434360536	-149.790430377311	-16.0557554327016	-161.789183122741	
2086000000	-17.4469118114511	117.026513005358	-3.3303428492115	-149.883453250078	-3.32891824782885	-149.838760926016	-16.1232663762993	-162.288197731834	
2086500000	-17.3564043207043	118.055529514848	-3.33731435446484	-150.010167248198	-3.33103101866248	-149.861535683301	-16.1515742044813	-162.411270232706	
2087000000	-17.3273060180911	119.348245329573	-3.33305320811896	-150.027854498376	-3.34100288522648	-149.939353891873	-16.1366914493515	-162.710194063644	
2087500000	-17.2309006879661	120.37279309354	-3.34117325859749	-150.108862574344	-3.33362219870471	-150.063800215062	-16.133151487496	-163.482659611514	
2088000000	-17.1481260160055	121.458273972786	-3.34245669972181	-150.138295807155	-3.34650789602779	-150.128706202354	-16.1795652042681	-163.5930670202	
2088500000	-17.0653418953526	122.693160030177	-3.34454190428789	-150.1817959832	-3.33962212284192	-150.169803826131	-16.1963616337456	-163.967486383302	
2089000000	-17.0667486751208	123.763429226961	-3.34911679127222	-150.193497890501	-3.33512922905592	-150.23363057626	-16.1872803556332	-164.264159201826	
2089500000	-16.9239138595555	124.630721927311	-3.35002661288023	-150.286409209733	-3.35257424368728	-150.298080469684	-16.2427731896308	-164.434312217634	
2090000000	-16.8954295108907	125.720408661825	-3.35644508794705	-150.331774059282	-3.34211591046691	-150.28953845786	-16.3055506071046	-164.856020734225	
2090500000	-16.8172945849624	126.978645030905	-3.34283970352692	-150.503252584728	-3.34658633164462	-150.359257485932	-16.2704526327036	-165.395334363379	
2091000000	-16.7322934881535	128.200634177962	-3.36236118722821	-150.512163882332	-3.34943522789337	-150.446841779175	-16.3441872416006	-165.508110623443	
2091500000	-16.6706993781787	129.339665743128	-3.3482587312792	-150.517953860179	-3.35447115742497	-150.489439506328	-16.3618273179922	-165.62832219314	
2092000000	-16.6668897515783	130.509143761431	-3.36836886862616	-150.630806001574	-3.34907096542283	-150.567371879513	-16.4358428925358	-166.022015388351	
2092500000	-16.54944485783	131.350742312801	-3.36640437352487	-150.695893487919	-3.36225236728815	-150.621773241374	-16.4351415248867	-167.019047689551	
2093000000	-16.5131115490339	132.261563465848	-3.36250491391574	-150.682732714793	-3.35841256526309	-150.667326233933	-16.4455034208425	-166.440393985816	
2093500000	-16.4486776099319	133.324458724226	-3.36148106353548	-150.781398938414	-3.35954142398166	-150.757268678025	-16.4846548097327	-167.333539655621	
2094000000	-16.374628555399	134.458074993742	-3.36260785621962	-150.880808441903	-3.35484355571711	-150.788799691394	-16.4887127075472	-167.766995338777	
2094500000	-16.3254854969316	135.47583155847	-3.37308974467561	-150.920736190266	-3.35917237016567	-150.845225617185	-16.5417963845072	-168.040027769873	
2095000000	-16.2812367416427	136.624423799871	-3.37077535483396	-150.952268059193	-3.36646730920479	-150.938959886576	-16.616934692867	-168.371069944763	
2095500000	-16.2171835224284	137.873948000539	-3.38190576166179	-151.060145237845	-3.37266165709281	-150.941088942125	-16.639183465181	-168.670747460131	
2096000000	-16.1833265530907	138.725865815934	-3.38351835271331	-151.042545584054	-3.36406981752182	-151.089279691974	-16.6784349294684	-168.975354460241	
2096500000	-16.0659028661768	139.972608146228	-3.37404216053425	-151.107887785925	-3.36528952647925	-151.090003775671	-16.728678699038	-169.354535050438	
2097000000	-16.0603485955592	140.851458418377	-3.37505737698899	-151.160478315995	-3.37350091775787	-151.109535057362	-16.7950721930878	-169.529336598603	
2097500000	-16.0149460943986	141.870644923939	-3.38224728640204	-151.203963780511	-3.38304995830836	-151.172755899124	-16.7856203071006	-169.938895747128	
2098000000	-15.993965708411	143.041107423788	-3.3812623232302	-151.27766639382	-3.37768861873084	-151.244270849387	-16.8700992586821	-170.061346637007	
2098500000	-15.9103383318569	144.177664038828	-3.39049509176799	-151.335651239158	-3.37547497693082	-151.322737388652	-16.9192049925172	-170.544994231114	
2099000000	-15.8923434351642	145.040518527976	-3.38122856719647	-151.355412036382	-3.38347310874868	-151.329714054935	-16.9634734101016	-170.886824909487	
2099500000	-15.8779469101934	146.089051304346	-3.38698120193243	-151.413787178322	-3.37654453216515	-151.404926068862	-17.0013500546621	-170.985257976717	
2100000000	-15.7610350192951	147.388935384437	-3.39324179694644	-151.453088107133	-3.37174715445537	-151.453229622476	-17.0828037142695	-171.580926207556	
2100500000	-15.7708695465678	148.027415198387	-3.39634423335294	-151.510524645808	-3.39447517411596	-151.480369426906	-17.1548467947173	-171.80064806383	
2101000000	-15.7112494059503	149.110989586593	-3.39563426740958	-151.563936274014	-3.38189726104602	-151.548923187043	-17.1870858432795	-171.953103795731	
2101500000	-15.6627754917942	150.140710699026	-3.40111033468509	-151.605416814316	-3.39026071709206	-151.591698855466	-17.2526037940917	-172.464578359821	
2102000000	-15.6106540301176	151.006932997037	-3.40031438153756	-151.704343887911	-3.39770047640617	-151.61588131317	-17.330906992064	-172.965299277695	
2102500000	-15.5539510364542	152.183479132773	-3.40352868459429	-151.767538308404	-3.39908872734719	-151.695532103537	-17.3363546790566	-173.303975817484	
2103000000	-15.6077631598513	153.006554358705	-3.40763365819749	-151.746907719474	-3.40625499736402	-151.765325870672	-17.4349592197459	-173.474453185104	
2103500000	-15.4665064035838	153.890971061198	-3.40556675696958	-151.843748187739	-3.40194013314724	-151.795180602726	-17.4335653108375	-173.633731843235	
2104000000	-15.5224571454045	155.221126635011	-3.40914199141707	-151.816888723911	-3.39827153617958	-151.85861912226	-17.5634186248659	-173.922313856161	
2104500000	-15.465094153947	155.784730062238	-3.41192744906164	-151.871188209247	-3.41612158876606	-151.876916795846	-17.5926893201335	-174.434049020236	
2105000000	-15.3938824434763	156.920261963872	-3.4094489199619	-151.967367045225	-3.40227473880564	-151.924879050651	-17.6026437915682	-174.816074335105	
2105500000	-15.3745465187621	158.200795651496	-3.41391419549285	-151.940359445025	-3.40352522115071	-151.965295488719	-17.7045793961359	-174.625962623864	
2106000000	-15.330370295188	159.054570449507	-3.41188806327493	-152.057162777514	-3.41587746659777	-152.063744565081	-17.7141132089401	-174.978473235571	
2106500000	-15.3206288894053	159.917973903969	-3.41112512555868	-152.124487363467	-3.4100545624235	-152.069651464602	-17.7910544116093	-175.46511405895	
2107000000	-15.270721888333	161.103772337738	-3.41942994373428	-152.201356249863	-3.4164554173588	-152.125585121419	-17.8579298101446	-175.259822334942	
2107500000	-15.2258753985529	161.922387161217	-3.41789287884	-152.184430027817	-3.4205301879045	-152.181052291788	-17.9222066048265	-175.462337965146	
2108000000	-15.1737014783097	162.891173865565	-3.42072190004369	-152.22553956695	-3.42839277675284	-152.208272083072	-17.9900116680709	-176.140561366483	
2108500000	-15.2038985880272	163.813473469087	-3.41316017034938	-152.312371761135	-3.42282095580291	-152.247003021276	-17.9778060347464	-175.860216261792	
2109000000	-15.1533712143458	164.950358440551	-3.42190370568549	-152.309885988042	-3.42605960299851	-152.258806736244	-18.0875128683231	-176.510447252444	
2109500000	-15.1232935110041	165.245948163269	-3.43043556401051	-152.304494817517	-3.42129164732486	-152.386339504056	-18.1234520022188	-176.511434700878	
2110000000	-15.1339763024551	166.112975420877	-3.43408693431749	-152.365552436177	-3.42244772266643	-152.392113990714	-18.1811833934789	-176.712142890159	
2110500000	-15.0781023469333	167.51285393736	-3.42234215351074	-152.463521006701	-3.43408853550404	-152.454897954507	-18.2160780608001	-176.834708046836	
2111000000	-15.0820329720933	168.608408452651	-3.43107610702004	-152.487724253193	-3.42455147571819	-152.487884130249	-18.3830932623391	-176.643221322369	
2111500000	-15.0466354118895	169.079552883158	-3.43340859212747	-152.555283426148	-3.43637434249807	-152.586167805859	-18.3560133875262	-176.960957568701	
2112000000	-15.021982527739	170.213621275516	-3.43594549275635	-152.606104560005	-3.44164571756875	-152.55640639672	-18.4364563529712	-177.286883653704	
2112500000	-15.0150815487656	171.18583494822	-3.44096267837925	-152.608150176057	-3.44148555941742	-152.584853987038	-18.5146118835554	-177.14836377738	
2113000000	-14.9879135449277	172.002631423989	-3.4380963034884	-152.640750901152	-3.42693139794338	-152.65300028084	-18.5526792688149	-177.520953338033	
2113500000	-14.9911588895674	173.180178518884	-3.43078164432546	-152.676267271468	-3.43663518772105	-152.72865843095	-18.572244112083	-177.581602586865	
2114000000	-14.963461162115	174.08398231208	-3.44435218295545	-152.689281564259	-3.44118734740045	-152.752247789494	-18.7426441715763	-177.22794285555	
2114500000	-14.9446325994527	175.024863272959	-3.45046820645714	-152.782654585283	-3.4333628511948	-152.77035001497	-18.7513831464985	-177.40269408506	
2115000000	-14.9195618037153	176.054254769995	-3.45247114213478	-152.814211839008	-3.43603322986394	-152.845950886854	-18.7210436902406	-177.034293960909	
2115500000	-14.9352092153726	176.879718241766	-3.44409557428874	-152.84206096821	-3.44414893086148	-152.90626764524	-18.8000189532572	-177.105281400837	
2116000000	-14.9390059237008	177.555382345784	-3.45300163495383	-152.922104110441	-3.44685360949808	-152.939990709035	-18.8677938829743	-177.004978032348	
2116500000	-14.9226452193488	179.047523326488	-3.45213267264931	-152.975187654143	-3.44071199128087	-152.914024997238	-18.9202775181866	-176.937230380113	
2117000000	-14.899222598019	179.429819865875	-3.43674527775884	-153.007940163489	-3.45755105743168	-152.957579156467	-18.972215462586	-177.21690378747	
2117500000	-14.8690141660376	-179.883137254604	-3.4659746490678	-152.995616089719	-3.45509296856959	-153.037843157421	-18.9992704256145	-177.269452518987	
2118000000	-14.922025279593	-178.813934266297	-3.44930793531386	-153.043666289628	-3.45086449964005	-153.102434249717	-19.058870896357	-176.856767462612	
2118500000	-14.8901083250219	-177.761650492946	-3.45521984169763	-153.139184545122	-3.46112278979334	-153.051361862071	-19.1172413886139	-177.156345859541	
2119000000	-14.8860840931263	-177.106021964714	-3.46294678212433	-153.139266104933	-3.45658848388976	-153.12144976158	-19.1141654565332	-176.842012921071	
2119500000	-14.9453716106796	-176.216018234734	-3.45215679501027	-153.156476255206	-3.46566446542891	-153.168383905954	-19.1905649188531	-176.6178197389	
2120000000	-14.85836179641	-175.196568176617	-3.4624542546747	-153.255793775608	-3.45697941961869	-153.208773361706	-19.1387718449225	-176.331668158681	
2120500000	-14.8632979826722	-174.229178551498	-3.45839615775839	-153.257210130218	-3.46054435976579	-153.24206059611	-19.1662151803923	-176.019118012426	
2121000000	-14.8996943387182	-173.572270548729	-3.47084441628379	-153.294661131399	-3.45314448540904	-153.313898962288	-19.2687344008597	-176.00394686938	
2121500000	-14.8589566689439	-172.589381566446	-3.47252051515188	-153.379539400862	-3.46492488115374	-153.33885186532	-19.2381214479215	-175.51147525011	
2122000000	-14.904351414664	-171.827851841803	-3.47258723000927	-153.390428580991	-3.47581378346951	-153.412576744292	-19.3206070912074	-175.520148299141	
2122500000	-14.8824926490469	-170.706113603969	-3.46677294019609	-153.457573397497	-3.46555642429703	-153.435156795952	-19.2887265997261	-174.732790290011	
2123000000	-14.9019743132541	-169.929510326646	-3.47722357221158	-153.453280929016	-3.46187469200468	-153.495756637979	-19.3527372156596	-175.145133364331	
2123500000	-14.9445936171787	-169.156995549998	-3.4731840185779	-153.448891744917	-3.47810124513942	-153.48734779677	-19.3692666618596	-174.383479876703	
2124000000	-14.9306447997364	-168.103944725221	-3.4736869460809	-153.535743989265	-3.48750527887044	-153.43789958808	-19.3531773797946	-174.211762561549	
2124500000	-14.8851315891341	-167.379070192622	-3.47194909430037	-153.565366286215	-3.47266496501188	-153.575359987923	-19.3990400336347	-173.782887764393	
2125000000	-14.957986270207	-166.726480075191	-3.48503715025207	-153.619719429504	-3.48055941304381	-153.587936208025	-19.4153828153442	-173.529338968064	
2125500000	-14.927287173829	-165.634951289247	-3.47982491480088	-153.629179202187	-3.47675594528501	-153.631989175003	-19.4634231393162	-173.036876188278	
2126000000	-14.9922126424699	-165.178369282051	-3.48626440175546	-153.722206512229	-3.47173948851219	-153.671681026994	-19.4589838165417	-173.063306425148	
2126500000	-15.0049848968847	-164.048228125747	-3.4936239124022	-153.732474100219	-3.47955550844985	-153.689301807411	-19.4520990115874	-172.102981391866	
2127000000	-15.0159360807436	-163.425176333384	-3.49073519220465	-153.794723001371	-3.48982024672032	-153.779923796051	-19.5510636420005	-171.965578937471	
2127500000	-14.9646776319937	-162.677789715437	-3.49188511798915	-153.860174569102	-3.47985146863744	-153.790143760721	-19.4288196464859	-172.069577956904	
2128000000	-15.0545434212983	-161.832385668598	-3.49449535266905	-153.871117370671	-3.48895937770941	-153.858584157227	-19.4049688431216	-170.873998875368	
2128500000	-15.0695826710515	-160.845748098464	-3.48630366480496	-154.005177228532	-3.48584536934954	-153.891289160931	-19.3972966740821	-170.645184433875	
2129000000	-15.055061215126	-159.869046028995	-3.49043327872271	-153.849978312135	-3.48766668186661	-153.973585544686	-19.3852183543174	-169.912126505891	
2129500000	-15.1230590752131	-159.385194789903	-3.50050629538011	-153.986816561113	-3.48522202652884	-153.947106861369	-19.4755452695675	-169.834410328163	
2130000000	-15.1416043688943	-158.439984860135	-3.48251548794073	-153.971189907818	-3.48675379575486	-154.018161340174	-19.3838415229024	-169.117680743941	
2130500000	-15.1782399106065	-157.738734291811	-3.50451276079939	-154.06844547839	-3.48943543857902	-154.039649211325	-19.3387936493309	-168.231858739028	
2131000000	-15.1375117969304	-157.022496999824	-3.50390173934577	-154.102647879139	-3.48687890380166	-154.111013672985	-19.294132478631	-167.978134403474	
2131500000	-15.2051341596722	-156.088924564858	-3.49362537161032	-154.163281299586	-3.50816915274059	-154.108736305696	-19.2760975910394	-167.314686757415	
2132000000	-15.2143779641992	-155.046406593307	-3.50054638459955	-154.094862116323	-3.48777857539914	-154.20947619121	-19.2741753032771	-166.196922139125	
2132500000	-15.2275876512396	-154.577931063984	-3.50148100323493	-154.225146451697	-3.49328382493263	-154.236290409867	-19.1720995226769	-166.297341772474	
2133000000	-15.2777637326804	-153.792037464091	-3.50532995735154	-154.255393889264	-3.49292148592613	-154.320512083645	-19.1173773291698	-165.624162489321	
2133500000	-15.3007773048762	-152.973096179997	-3.50795267159662	-154.360648440063	-3.50101692097243	-154.315261719458	-19.0555376170092	-165.279320669497	
2134000000	-15.3768628015271	-152.22697128709	-3.50352282535189	-154.36475614613	-3.4956964286397	-154.33717281284	-19.1166836814588	-164.537788076608	
2134500000	-15.4222499454253	-151.729662090001	-3.49873429142297	-154.40307829832	-3.49745828716486	-154.396134052005	-19.0058181500962	-163.918717301298	
2135000000	-15.4068050086341	-151.034347143981	-3.50316390328545	-154.456092121701	-3.49924624265609	-154.401991027823	-18.8883822930927	-163.616337846265	
2135500000	-15.4794469247125	-149.722475075953	-3.50708485367877	-154.535722554415	-3.49819718976922	-154.410716128322	-18.8316915318569	-162.577867619508	
2136000000	-15.5252114491489	-149.486772591996	-3.50527592440167	-154.5244097575	-3.50740368189534	-154.533112600594	-18.8093331511869	-162.070857037076	
2136500000	-15.5749212594296	-148.602044133866	-3.50441157792236	-154.587508284285	-3.51267156230189	-154.517497193799	-18.8256253091289	-161.483923746326	
2137000000	-15.6408826806484	-147.806204735761	-3.5036530997695	-154.566898497327	-3.50743147409739	-154.593664529213	-18.7209692726058	-160.952868224455	
2137500000	-15.6451506027168	-146.893636455271	-3.50514331590822	-154.694041523317	-3.51129556153643	-154.704868174052	-18.6661397231444	-160.315330746114	
2138000000	-15.6939527661414	-146.621171293834	-3.50983742733457	-154.75275942384	-3.51908984440192	-154.743155117737	-18.5578132752055	-160.207973652989	
2138500000	-15.7357041878164	-145.809120126692	-3.50369619860379	-154.784311489502	-3.51245023633221	-154.720855523755	-18.4857750447084	-159.977542999267	
2139000000	-15.7991960030718	-144.926209659357	-3.50970014793125	-154.817330341133	-3.5023610603912	-154.828501060514	-18.3647915753274	-158.925740685781	
2139500000	-15.8671900790161	-144.34441397209	-3.51428202791415	-154.859161870048	-3.50520399676111	-154.854856078421	-18.3834839654234	-159.030577409112	
2140000000	-15.9346357142112	-143.730698769345	-3.51869580206155	-154.9247818076	-3.51629315408018	-154.939092611937	-18.2792544071691	-158.140871974462	
2140500000	-15.9681700327108	-143.008964823427	-3.51738576584764	-154.954148874633	-3.5139728890292	-154.875462706756	-18.1554653599148	-157.30738376043	
2141000000	-16.0610494194494	-142.177309077512	-3.51875354279229	-154.986356018772	-3.51366898632691	-155.0131552379	-18.060323890265	-157.225246231551	
2141500000	-16.1261860057595	-141.527887959595	-3.52485431661106	-155.062234740532	-3.51895098705739	-155.043865585949	-18.0709006133756	-156.863838545418	
2142000000	-16.1798392140221	-140.703130307177	-3.51863778421919	-155.113106732185	-3.5136340820004	-155.051311359544	-17.9725822189555	-156.132266823023	
2142500000	-16.2378935289877	-140.466874768774	-3.51380982670861	-155.185731442198	-3.51886394831637	-155.148693804921	-17.8086467044723	-155.91942707414	
2143000000	-16.3531140519765	-139.581897351519	-3.52077501348356	-155.165406820129	-3.5192265132279	-155.222770636377	-17.7700031028034	-155.759552819394	
2143500000	-16.3572153710873	-139.161301333742	-3.52383237768905	-155.289719501778	-3.51588596196539	-155.230172396671	-17.6399946581984	-154.985081984827	
2144000000	-16.5250274035839	-138.244161342995	-3.52720121916268	-155.309320584734	-3.52275996442199	-155.336774680637	-17.6111938918086	-154.1506554159	
2144500000	-16.5742110340731	-137.631711987231	-3.52234305276671	-155.332138663593	-3.51359278732733	-155.324730583785	-17.4028813134597	-154.322260861612	
2145000000	-16.5986844428895	-136.950641342675	-3.53079976538299	-155.434360383645	-3.51932250765266	-155.364582756681	-17.3722743443766	-153.449948823705	
2145500000	-16.6831237075568	-136.620220743135	-3.52331796058587	-155.419263389557	-3.51862020299073	-155.423487588729	-17.2919645559743	-153.460296339696	
2146000000	-16.7746173105784	-135.721113440447	-3.52769642950657	-155.49553715201	-3.52673355606368	-155.480524751869	-17.2117325779914	-153.195384581456	
2146500000	-16.903988052716	-135.73425247656	-3.52615189297049	-155.580275219099	-3.52160965554612	-155.571198098291	-17.1241460502864	-153.122050975794	
2147000000	-16.9390559878863	-134.640960465511	-3.53131443789434	-155.644453389668	-3.51952212460651	-155.6062926408	-16.9820791953241	-152.66552485591	
2147500000	-17.0048130642505	-134.060182421681	-3.51867636707724	-155.639601958085	-3.52222691008358	-155.660586258514	-16.9130142612416	-152.332167212831	
2148000000	-17.1162506623864	-133.942333284616	-3.52568906882076	-155.796474547814	-3.52557685659945	-155.719396862515	-16.8469550834927	-151.892751726909	
2148500000	-17.2481040754251	-132.956136656255	-3.5283957648635	-155.775446197201	-3.53363543470739	-155.752658704854	-16.7872814412826	-152.099942418654	
2149000000	-17.3059641114187	-133.129753751691	-3.52946045256029	-155.831987538279	-3.52281556498394	-155.796596866217	-16.6246283651025	-151.577816698731	
2149500000	-17.3961022489255	-132.236431477918	-3.53116690722788	-155.925901011632	-3.52413657051185	-155.816490990806	-16.5081334599471	-151.283296728541	
2150000000	-17.5119429576719	-131.472383908988	-3.53518102815799	-155.976699353201	-3.5428558822216	-155.887638542865	-16.4734152131324	-151.130063460422	
2150500000	-17.6217428243275	-131.258190609252	-3.52741957631941	-156.000130848462	-3.53113011825684	-156.027043437572	-16.3151665702052	-151.03422873505	
2151000000	-17.7608679759146	-131.119448750053	-3.53362187162777	-156.074544044593	-3.53178428236632	-156.034570718359	-16.332447021095	-150.78754720252	
2151500000	-17.7786060508322	-129.740674846895	-3.52693910501007	-156.091296525344	-3.52539914906698	-156.051345311757	-16.2349510456093	-150.049735994253	
2152000000	-17.9530971075479	-130.09531718099	-3.53591858458923	-156.186290305519	-3.52677753551467	-156.184537795341	-16.096270103672	-150.372668228426	
2152500000	-18.0559713870544	-129.589319179102	-3.54241675759704	-156.206900421103	-3.5370896804503	-156.20588764653	-16.0364153528859	-150.363394359401	
2153000000	-18.1997279617578	-128.944166027067	-3.53864361189691	-156.278425837894	-3.53599790983303	-156.295522570197	-15.9521649945175	-149.862800694222	
2153500000	-18.3263560939929	-128.438167809776	-3.53234335172933	-156.372426769506	-3.54124498694558	-156.304837436685	-15.8168153505335	-149.729697422945	
2154000000	-18.4339190738044	-128.204879894834	-3.54438218446443	-156.411293144872	-3.53600618399607	-156.369113407145	-15.7797174911701	-149.186588871453	
2154500000	-18.6264439069507	-128.297629930518	-3.53245642629336	-156.475655114052	-3.5337484666588	-156.446877975124	-15.6578652386935	-149.408415873862	
2155000000	-18.6780138930118	-127.858240078342	-3.54163378061641	-156.51770764691	-3.54117579726841	-156.501200795494	-15.6020787244119	-149.628528066737	
2155500000	-18.8725723719407	-127.036066193968	-3.53543060128456	-156.61051911132	-3.54609470322066	-156.619885223711	-15.5112078349703	-149.50964954646	
2156000000	-19.0349353896802	-126.538841591974	-3.53596170726379	-156.664167490377	-3.54217186601219	-156.640484281155	-15.4683934028578	-149.315440870679	
2156500000	-19.1221913295416	-126.969171225372	-3.54055232774754	-156.753903799971	-3.53382104267672	-156.702422519824	-15.3877220058498	-149.362936740245	
2157000000	-19.2143136717525	-126.714548974457	-3.53720863253678	-156.793608977484	-3.54744977277065	-156.761949890746	-15.2682965364758	-148.994276646918	
2157500000	-19.5207833716289	-126.553586705898	-3.54274496138724	-156.892371046874	-3.53904565590775	-156.834002330897	-15.1771032147117	-149.0534069371	
2158000000	-19.6378734299077	-125.46094251942	-3.5456847557633	-156.918170294061	-3.5439628344893	-156.896593283585	-15.1467551361696	-148.712032657471	
2158500000	-19.8269950530769	-125.421617821485	-3.55484906506023	-157.016519577774	-3.54560603672403	-156.961006924437	-15.0778487596428	-148.894079664603	
2159000000	-19.8609568075389	-125.285332038582	-3.54350735120953	-157.020317383973	-3.54122286158452	-157.067695103848	-14.9713240061607	-148.712581836925	
2159500000	-20.0565022546333	-125.622065601984	-3.54350703587863	-157.079318228818	-3.54600149604299	-157.142279438398	-14.9199209329181	-149.058178054481	
2160000000	-20.2953413127412	-125.377842812233	-3.56017795909853	-157.233411717426	-3.55162465445503	-157.157041499297	-14.8249939574768	-148.526428167406	
2160500000	-20.4347620994596	-125.105366415109	-3.55880046096446	-157.226375517226	-3.54001611631875	-157.235599014001	-14.7458521168564	-148.66863763458	
2161000000	-20.5729503596682	-125.494281910681	-3.5460138035422	-157.33148926181	-3.55289480710778	-157.253378376494	-14.7412669346285	-148.646974324483	
2161500000	-20.8138196542174	-124.992105532492	-3.55786309152745	-157.33026298158	-3.55648541168188	-157.407972212447	-14.6016634432982	-148.933974347097	
2162000000	-21.0442517195206	-125.292689780089	-3.55943360617412	-157.433622618491	-3.54781067142898	-157.42146918376	-14.5878598964466	-148.952443357759	
2162500000	-21.2413091744891	-125.253400158547	-3.56110022636844	-157.541832488872	-3.55243928172752	-157.533397043514	-14.5600127230571	-148.697380270413	
2163000000	-21.288105768397	-125.773207879681	-3.54632747608724	-157.594660772945	-3.54937199735686	-157.542399984731	-14.4637136768786	-148.821844308534	
2163500000	-21.5535788706785	-126.089701910732	-3.5604487323367	-157.667211782645	-3.55868854046728	-157.624874034984	-14.374239932809	-148.904791914775	
2164000000	-21.7601882769425	-126.265540537216	-3.56255251994688	-157.722948550172	-3.54770217184266	-157.676626676823	-14.3063342770746	-148.907360573615	
2164500000	-22.0528992634216	-126.060412645268	-3.55920939759567	-157.816474912687	-3.5499661048698	-157.796633150637	-14.3091455370196	-149.122318986753	
2165000000	-22.2207947654986	-127.291525046216	-3.55732145359374	-157.862433239194	-3.54991797605133	-157.811433698837	-14.2048305524506	-149.111929397816	
2165500000	-22.5466383235455	-127.61188873347	-3.55020295866394	-157.955592089915	-3.55512562721518	-157.880127162716	-14.1987712821314	-149.00936565072	
2166000000	-22.784709126109	-127.597641486997	-3.55671651012286	-158.003160795078	-3.55563142875021	-157.919841242239	-14.1529495222283	-149.308051056297	
2166500000	-22.9637635563023	-128.413813817096	-3.55925241907481	-158.022226439834	-3.56350679857617	-158.049597785003	-14.0916383869392	-149.086291557276	
2167000000	-23.0811305257693	-128.278453461702	-3.57016893049052	-158.185818149524	-3.55883787000254	-158.070986246828	-14.0306705913612	-149.152705650516	
2167500000	-23.4120672962714	-129.267147027912	-3.57213879672082	-158.234277025181	-3.56445133772593	-158.173601552628	-14.0791652235487	-149.371847909884	
2168000000	-23.5677084647056	-130.107270071878	-3.56583778924955	-158.296645878262	-3.55289203835492	-158.236663894433	-13.9396066997496	-149.427709118162	
2168500000	-23.8966123918518	-131.676580701147	-3.5613553924649	-158.387365186778	-3.56156444413001	-158.319672309404	-13.9110024456396	-149.503814961082	
2169000000	-24.0283201461661	-132.47950384917	-3.57131452928471	-158.50549607345	-3.56968434291841	-158.365100150548	-13.8723309345136	-149.574771696969	
2169500000	-24.3077699728301	-133.568440419723	-3.56989048522108	-158.525178466242	-3.56250938852535	-158.43478178348	-13.8104169276059	-149.415223427904	
2170000000	-24.6691002771754	-135.485469366708	-3.56657682541231	-158.586025225217	-3.56573408067667	-158.572664020076	-13.7670624546851	-149.744384893843	
2170500000	-24.8343452434381	-135.869428259371	-3.57151111537142	-158.714278041593	-3.57129049288507	-158.648890905436	-13.7686969907609	-149.77948067452	
2171000000	-25.0744838923727	-137.983328561564	-3.57398806131019	-158.792795539503	-3.56657326828046	-158.693501255372	-13.7059413552444	-150.447489186284	
2171500000	-25.1739238237238	-139.778618909689	-3.57607465883945	-158.831146863349	-3.56621416931301	-158.776230054317	-13.6678177371894	-150.237281219561	
2172000000	-25.7399211051059	-141.071937788638	-3.58484244060266	-158.858184272704	-3.56093688165624	-158.829856289704	-13.6844530557296	-150.247360256337	
2172500000	-25.5575087773411	-143.020004432549	-3.57768065143192	-158.948657971204	-3.57347297591736	-158.901219344592	-13.5923935572086	-150.593152963321	
2173000000	-26.0441966766173	-145.287933685769	-3.58402320361952	-159.061920201174	-3.57126231604487	-159.017334146277	-13.6150368853647	-150.797867353878	
2173500000	-26.0471575536659	-147.692958509032	-3.58767700193964	-159.096269046862	-3.57729477129329	-159.095661758464	-13.5812217540892	-150.82723493194	
2174000000	-26.1700464685589	-149.493643561495	-3.57992642978002	-159.167295665699	-3.58058928947336	-159.078058407652	-13.5552285186524	-150.949264623309	
2174500000	-26.2804335622507	-153.509894735786	-3.57347301059921	-159.30873416185	-3.58458924572879	-159.229638730035	-13.5546010482629	-151.203310069312	
2175000000	-26.4028644882575	-155.371574489571	-3.57717299014971	-159.304934302147	-3.57867825026776	-159.254264810909	-13.4681300099424	-151.228854017479	
2175500000	-26.3464549279541	-158.57228338902	-3.57998546048704	-159.461642554542	-3.58083852679788	-159.371250591637	-13.4749948491244	-151.523975403241	
2176000000	-26.4951410161499	-161.625509289104	-3.58693723716887	-159.531121421368	-3.58273716020149	-159.474319675254	-13.4255495741049	-151.876650982393	
2176500000	-26.5395718573143	-163.53347163972	-3.5954362207254	-159.536518533991	-3.58587305047826	-159.560698286912	-13.4076715944032	-151.817242351545	
2177000000	-26.4264222504695	-165.440864725368	-3.5927864142479	-159.584431031404	-3.58530131560586	-159.60235277457	-13.4145812918088	-151.903230980337	
2177500000	-26.2653869868703	-168.007246882444	-3.59252658229643	-159.686130309219	-3.57982400591849	-159.70621807745	-13.391762198208	-152.062742975535	
2178000000	-26.3259961012811	-171.738430289967	-3.58692406006968	-159.811501452012	-3.58535425722648	-159.740586700926	-13.4044505436045	-152.437411453376	
2178500000	-26.1353872651451	-174.160198607311	-3.59048777131546	-159.885421979903	-3.5954308756791	-159.810203015349	-13.3889455894195	-152.691595141696	
2179000000	-25.8269334100621	-176.381893302851	-3.59445356699481	-159.986507516328	-3.59074066743217	-159.900889389292	-13.3737594371834	-152.791743472938	
2179500000	-25.8491684967744	-178.361587970874	-3.59633032759776	-160.040966483626	-3.60143675383599	-160.007664123577	-13.3528966523961	-153.190398456576	
2180000000	-25.6167646291748	178.208607294354	-3.60689365264022	-160.137393732719	-3.59778741235918	-160.122538257616	-13.3287695438712	-153.198522034723	
2180500000	-25.4351645181734	177.599026562194	-3.60645239950533	-160.164253615145	-3.59875511037918	-160.16563080282	-13.3357633105172	-153.110838824143	
2181000000	-25.1756029240115	175.50446332967	-3.6049963144198	-160.289675139869	-3.5953055411378	-160.193590124342	-13.3392106400346	-153.601823730768	
2181500000	-25.1027444008923	172.850031514128	-3.61226059166519	-160.346558544438	-3.59614240529965	-160.262909899374	-13.3322432655661	-153.926970545568	
2182000000	-24.7259186399281	170.780891407704	-3.60656810059111	-160.44131156532	-3.60329829612477	-160.372370959909	-13.330898313705	-154.028596864262	
2182500000	-24.4765724985946	169.26152932644	-3.61032060633728	-160.528273235671	-3.60892707592695	-160.43464739799	-13.3213448436931	-154.45791973063	
2183000000	-24.1657465899275	168.406835485762	-3.61476054315102	-160.549315231325	-3.60787402473794	-160.551951340848	-13.3433021084973	-154.310483871667	
2183500000	-23.9787763728821	166.318089907275	-3.62093546541646	-160.625913719674	-3.61086262307479	-160.659112066787	-13.3490889013322	-154.857081111122	
2184000000	-23.7276290781038	165.755127851511	-3.61788774449079	-160.72177218778	-3.61001696301993	-160.730553054676	-13.3175503404154	-154.781499178682	
2184500000	-23.4208894082787	164.616271694185	-3.61616676462481	-160.793202945163	-3.61441740392509	-160.755311753822	-13.3205408376385	-155.426595765403	
2185000000	-23.1909752930959	163.020923364651	-3.62208313890923	-160.895589355654	-3.6312138664538	-160.8605635481	-13.3603557904026	-155.570581908367	
2185500000	-22.888732485397	162.854525333028	-3.62148881124819	-160.989653647737	-3.61857191152024	-160.930468051752	-13.3046016624206	-155.68831763957	
2186000000	-22.5414839531715	161.951357613199	-3.62230773139055	-161.026724876501	-3.62263534320158	-161.051313756499	-13.3105453852281	-156.038487461585	
2186500000	-22.3988420623822	160.771414726691	-3.63266773929458	-161.103926206759	-3.6199738144364	-161.079695571065	-13.3260187879186	-156.163279575519	
2187000000	-22.0679931886142	159.871613753992	-3.63300279755262	-161.144078758607	-3.62885628698659	-161.149975440261	-13.3311292552366	-156.299754928021	
2187500000	-21.9327984442126	159.610587272206	-3.63649226845398	-161.283961082158	-3.62630242665971	-161.266599356236	-13.34642682206	-156.462195595812	
2188000000	-21.607266203352	158.833072497068	-3.63200711336374	-161.329383217003	-3.63509626256997	-161.325525800171	-13.3530617091302	-156.707603161413	
2188500000	-21.4210283010269	159.029836752701	-3.64561692398325	-161.425658637786	-3.64033447027417	-161.350467980457	-13.3533630690117	-156.99312456917	
2189000000	-21.0895599475847	158.160468216411	-3.64373683942085	-161.542741078354	-3.63795145444886	-161.463467281673	-13.4009094634075	-157.409705254252	
2189500000	-20.8545915602151	158.048188829626	-3.64634490727123	-161.575775083322	-3.63905326442838	-161.489432541119	-13.3907173131988	-157.55293147007	
2190000000	-20.5579903429703	157.611138000206	-3.64668113743109	-161.662781113957	-3.64632667337845	-161.620389234505	-13.3293401018891	-157.694794979533	
2190500000	-20.3988085234173	157.690131790177	-3.65848372498446	-161.787719169451	-3.63969169293805	-161.743298584439	-13.3725678968868	-158.181854549237	
2191000000	-20.1992733384343	157.916024806997	-3.65675594522152	-161.813062614345	-3.65000468166552	-161.778650869399	-13.3597941841919	-158.259368022264	
2191500000	-19.8787540222838	157.255865073236	-3.65434454081289	-161.930647629022	-3.6408491152323	-161.811730467412	-13.3989323574841	-158.464094500138	
2192000000	-19.7026060794544	157.522003886159	-3.65050929644346	-161.892589372733	-3.6502114154781	-161.948744302071	-13.3936838779302	-158.868709654869	
2192500000	-19.4067317752276	157.263756220822	-3.65538107546835	-162.056506448516	-3.65366962243083	-162.005603430711	-13.431970672924	-159.028839586416	
2193000000	-19.2375458523547	156.900662988376	-3.65558601912195	-162.126775685057	-3.65639059273239	-162.055008796745	-13.4509617315273	-159.184622280084	
2193500000	-19.0380830527025	157.011838627544	-3.65837916096797	-162.151252263059	-3.65365660678753	-162.111405064707	-13.4622795181441	-159.265845367359	
2194000000	-18.8075084168629	157.310655723987	-3.66008197559566	-162.217186552259	-3.66130476560822	-162.213686043306	-13.4842162375794	-159.603155529307	
2194500000	-18.6867303205949	157.493974424798	-3.67008604765055	-162.312564715278	-3.66190749178677	-162.279724517346	-13.4758671528114	-160.1010221508	
2195000000	-18.4169253104755	157.998984514632	-3.67870769364668	-162.432177009327	-3.66949349664522	-162.38482195591	-13.5020757705825	-160.249309894587	
2195500000	-18.3185483354217	157.696422318954	-3.67535337580796	-162.453658335768	-3.66594515473994	-162.458437764454	-13.5012581131561	-159.991613761868	
2196000000	-18.0945159893847	157.286580156685	-3.66813220039302	-162.511457700694	-3.67204434431813	-162.499239828277	-13.5478867339413	-160.315083052893	
2196500000	-17.8834428612173	158.057046823274	-3.68823627364015	-162.605331474967	-3.66796343885136	-162.519897800179	-13.5647510237025	-160.681905675568	
2197000000	-17.7027604543879	158.007004281123	-3.67966052222524	-162.640409946448	-3.68719120169933	-162.640796031025	-13.5635396633138	-160.663397349577	
2197500000	-17.6006039172459	158.556517901123	-3.67607574300398	-162.671919788549	-3.68593592499745	-162.656542665414	-13.6040006290429	-160.922826847066	
2198000000	-17.4042778671423	158.712976658875	-3.68560394932834	-162.824579056549	-3.68739245254575	-162.777653190953	-13.5851622672444	-161.418660285663	
2198500000	-17.2236979683104	159.055222494412	-3.69692630511092	-162.858860740226	-3.69245196224498	-162.860423428759	-13.6606145568692	-161.541297164999	
2199000000	-17.1187785473439	159.006372728898	-3.70241200973359	-162.919610632883	-3.69273326958362	-162.903772863395	-13.6582563442722	-161.781643370524	
2199500000	-16.9434532626275	159.913928875553	-3.70194143403917	-162.994743334844	-3.70335778499116	-162.933939205391	-13.6761181105746	-161.941676426983	
2200000000	-16.7282629291011	159.941205361527	-3.7045579578281	-163.018750626101	-3.70379849895918	-163.032960231362	-13.654969388874	-162.006691762727	
2200500000	-16.6551941231624	160.501765516338	-3.70925931657221	-163.180598950774	-3.7069882226959	-163.06145751389	-13.7029952667239	-162.183524474161	
2201000000	-16.4727441766179	160.517974496493	-3.70809998202251	-163.14204667675	-3.70497905431992	-163.203961883293	-13.7310549310516	-162.54821286495	
2201500000	-16.3481437500204	160.842420592285	-3.71161243361676	-163.246583884876	-3.71270470607424	-163.239704064894	-13.7897358744952	-162.531037906614	
2202000000	-16.2367495643602	161.600619767763	-3.72532886076229	-163.280673484677	-3.7150488736387	-163.272149605266	-13.7695470352567	-162.705534589945	
2202500000	-16.0377861205279	161.540531615388	-3.72275938071405	-163.343297799486	-3.7200603396401	-163.359618450578	-13.7779584780164	-162.810758142444	
2203000000	-15.8822985042489	162.376925339688	-3.72212351577957	-163.382178522216	-3.71287902164132	-163.429344252747	-13.8277389204697	-163.000077134337	
2203500000	-15.7768853653537	162.649455007728	-3.72851530244916	-163.490656863316	-3.71822435900288	-163.436341028785	-13.8346498376565	-163.184038218332	
2204000000	-15.6296618122235	162.956681560712	-3.72050341399004	-163.541398562593	-3.73079409155781	-163.528580124908	-13.8330470938049	-163.362202859458	
2204500000	-15.5034218560517	163.471497362331	-3.7317978566311	-163.625309967735	-3.72713325174853	-163.532683873864	-13.8795035646739	-163.514761731141	
2205000000	-15.3631383783889	163.91414855082	-3.73914604547274	-163.653555712245	-3.73454093240711	-163.602949268929	-13.8994325124927	-163.323547368524	
2205500000	-15.2515025642648	164.039162480069	-3.72959468271683	-163.720409052182	-3.74241629502548	-163.654103228328	-13.8973424137929	-163.428438141058	
2206000000	-15.1528944051716	164.77848797155	-3.7430894675783	-163.760805806354	-3.74094211659617	-163.76742807045	-13.9900147652063	-163.888106351794	
2206500000	-15.0328709987437	165.130580678324	-3.74098234844296	-163.820016514991	-3.73156929601483	-163.806076547258	-13.9545207232716	-164.075298659007	
2207000000	-14.9257260280851	165.68594112922	-3.74639721466034	-163.845042736221	-3.74703091601521	-163.920753047155	-13.9436031114576	-163.845478716675	
2207500000	-14.8007680301961	166.421876867306	-3.75884425595979	-163.877768894927	-3.74630080694271	-163.926352024451	-14.0000111740266	-163.85030895424	
2208000000	-14.6829241929872	166.543491810863	-3.74410163975595	-163.918859808236	-3.75720709843643	-163.965218850794	-13.9970360994347	-164.047181705106	
2208500000	-14.584769242557	166.934034938322	-3.76605497970936	-164.049065811561	-3.76069975077484	-164.095446956021	-14.0704380806429	-164.271726149903	
2209000000	-14.5071980736364	167.706973018573	-3.74867478348701	-164.088261680021	-3.75399013934415	-164.078733467107	-14.0155796822358	-164.259268005757	
2209500000	-14.3891019317719	168.051880187688	-3.76308188452416	-164.120957231709	-3.76768296821377	-164.123253516498	-14.0569851666355	-164.366627705237	
2210000000	-14.2696179171783	168.525247147863	-3.76463351370356	-164.208291651523	-3.76861736275048	-164.216890676384	-14.0782946284798	-164.646358126519	
2210500000	-14.1449703049237	169.087706083491	-3.77841426676197	-164.204556008751	-3.74792229664007	-164.192772441599	-14.086776978365	-164.578923504982	
2211000000	-14.0739149269292	169.472597353799	-3.76874609233072	-164.290603741325	-3.78171313514423	-164.335426850235	-14.1272030717279	-164.620909084744	
2211500000	-13.9968997124078	169.902050703652	-3.79087604205166	-164.343327350632	-3.7735968557922	-164.309172805234	-14.1278782422328	-164.333826815703	
2212000000	-13.8873044050211	170.40762862054	-3.7846314016313	-164.358157783588	-3.77218123701901	-164.422394919728	-14.1478868464983	-164.634257764307	
2212500000	-13.7951199050769	170.872525278622	-3.77835641880311	-164.414727450787	-3.78150236568132	-164.482897850049	-14.1404038456497	-164.516397874333	
2213000000	-13.7085841278366	171.675955175725	-3.78180417847151	-164.454365795372	-3.78516057375063	-164.45326482748	-14.164556998261	-164.520265273648	
2213500000	-13.6150506044641	172.125542591412	-3.79307391273655	-164.50427021414	-3.77704132488459	-164.482864441664	-14.1732031165854	-164.569818418673	
2214000000	-13.5620332296992	172.402339876144	-3.79516729843604	-164.511751057333	-3.79164176910809	-164.58859995389	-14.2260448658856	-164.582185916261	
2214500000	-13.458753275534	173.207532021794	-3.79036403072465	-164.63774973489	-3.79782870979528	-164.622624418614	-14.2075953558306	-164.770719460282	
2215000000	-13.3897113287615	173.802181462477	-3.80272298831814	-164.615783980853	-3.79248151691275	-164.618437203845	-14.2131283498452	-164.700221732182	
2215500000	-13.2889163562223	174.255962157873	-3.80421180860873	-164.694632229952	-3.79382478810989	-164.698686516551	-14.2002125953753	-164.240625764827	
2216000000	-13.1878596256575	174.799578946287	-3.79945899114967	-164.735373760975	-3.80552117607077	-164.743148505611	-14.1986686674528	-164.46970934364	
2216500000	-13.1409996588798	175.36931711938	-3.80493753808057	-164.704591207463	-3.79786416792458	-164.75842176595	-14.2760392389844	-164.431482958469	
2217000000	-13.0582239804116	175.881115623612	-3.80986512558056	-164.843282133197	-3.80574269097188	-164.78595470377	-14.200333565448	-164.284311263332	
2217500000	-13.0203588447325	176.308189625423	-3.81690941417547	-164.805374155133	-3.81562077687619	-164.837043767123	-14.2363220825774	-164.020278758646	
2218000000	-12.9135235705939	177.125143450547	-3.82635922956355	-164.867648810428	-3.81413047394193	-164.89256910081	-14.3018182798293	-164.137749623346	
2218500000	-12.8626679486224	177.453032705605	-3.82235378160338	-164.943569049325	-3.81491077636648	-164.940118843631	-14.2768243447174	-163.95002281214	
2219000000	-12.7896247364065	178.034999922445	-3.83816118763936	-164.984455887502	-3.82401190979603	-164.931564308196	-14.2750694129713	-163.94018212494	
2219500000	-12.7396587266012	178.480752722763	-3.82774894175332	-165.058304952725	-3.83379796628011	-164.978433795472	-14.2829072129758	-163.886500351285	
2220000000	-12.6402093819793	178.943776582865	-3.82989690484301	-165.06278754945	-3.82385438678974	-165.037019574206	-14.2507270902495	-163.959846617967	
2220500000	-12.6168063330321	179.518008815911	-3.82765660238976	-165.063076583118	-3.83466977642318	-165.061403065307	-14.2301420314364	-163.657139657767	
2221000000	-12.5496695078176	-179.828003584521	-3.82954880257775	-165.147339727779	-3.83680182431752	-165.109358039262	-14.2655150947458	-163.431534555143	
2221500000	-12.4792858916639	-179.21203602342	-3.84457793915371	-165.163546306038	-3.84169720822705	-165.121917933771	-14.2862805021613	-163.216946377528	
2222000000	-12.4178059207758	-178.784733094065	-3.85069161866016	-165.123588167222	-3.84520654390192	-165.212929368809	-14.2904205198013	-163.153397875424	
2222500000	-12.3550773022716	-178.054240899593	-3.84516257881851	-165.244071358355	-3.84255214294547	-165.22109047916	-14.2626695798223	-162.87174297153	
2223000000	-12.3007583527569	-177.625297934096	-3.84501503899736	-165.219594347863	-3.85048199293267	-165.256136272577	-14.242439976169	-162.624467294325	
2223500000	-12.2632009371484	-176.71034925459	-3.86201898803649	-165.233064309616	-3.84059266705888	-165.300723139717	-14.2629768784434	-162.645378504219	
2224000000	-12.1941637488303	-176.636888837555	-3.85061775316702	-165.31702362192	-3.85802777593305	-165.34188918407	-14.2232425450944	-162.397213058094	
2224500000	-12.1703576762129	-175.818796244816	-3.85025999309913	-165.403681560378	-3.84749305463203	-165.339147047276	-14.2529114718645	-162.30443837253	
2225000000	-12.1315645431054	-175.383116660316	-3.86572824139545	-165.36509652621	-3.86413544543953	-165.452862514562	-14.2578699169055	-162.139397188753	
2225500000	-12.0873144626737	-174.919800997413	-3.86847832566112	-165.401707452271	-3.86639690626053	-165.504659546286	-14.2580875017001	-161.898413118994	
2226000000	-12.0242390359415	-174.106108582271	-3.87492703636056	-165.407171913828	-3.86303381836913	-165.376929892211	-14.2320121250795	-161.527046568392	
2226500000	-11.9962177333283	-173.700712885484	-3.87149230783981	-165.505385569246	-3.86513309071084	-165.540102802234	-14.1923807581832	-161.794600761238	
2227000000	-11.9740054097854	-173.043458722937	-3.88795493630299	-165.476463983401	-3.86764499135393	-165.476379760603	-14.2255839771057	-161.413509754816	
2227500000	-11.9640732723524	-172.571841326878	-3.87947990040724	-165.523250416868	-3.86643441411976	-165.52467395085	-14.2091748413538	-161.045550224694	
2228000000	-11.9320834863808	-172.016665764533	-3.8794247480845	-165.509062096655	-3.88373873224235	-165.62635127818	-14.2100842550139	-160.99821353678	
2228500000	-11.8793513408297	-171.604170095063	-3.89617026824159	-165.623182644506	-3.87749703582213	-165.60506850104	-14.1803469934004	-160.889853836599	
2229000000	-11.8131288903889	-170.830196656789	-3.89279621442295	-165.632767679482	-3.88368851522451	-165.668350953432	-14.1592012537315	-160.532891016659	
2229500000	-11.7835080062542	-170.125590735093	-3.89390238040923	-165.64303178017	-3.88371659744726	-165.666846338489	-14.1227015269078	-160.24143592075	
2230000000	-11.7357350771532	-169.745841361319	-3.89506179767992	-165.729336435761	-3.87875994436615	-165.695480705199	-14.1060322451811	-160.028233384064	
2230500000	-11.7546681756079	-169.350977676695	-3.88463555950413	-165.752661074082	-3.8873753712322	-165.764584339776	-14.0685679317214	-159.916114915441	
2231000000	-11.7159482295904	-168.501979444187	-3.8947593775317	-165.758261469736	-3.90194409566541	-165.647758461181	-14.0470264263785	-159.529549799905	
2231500000	-11.6565376474542	-168.128294290654	-3.89436397750568	-165.768290521358	-3.88914028046274	-165.7656830903	-14.0440596250399	-159.293013650806	
2232000000	-11.6661809817496	-167.559548704995	-3.90342462210835	-165.843792840752	-3.8921167082257	-165.79962449026	-14.0562069932655	-159.320081683016	
2232500000	-11.64664592752	-167.198500945216	-3.90410541965041	-165.891590354529	-3.89913675281148	-165.850081142475	-14.0074098312265	-158.959967620325	
2233000000	-11.6056620025054	-166.466780445562	-3.89906686687747	-165.859893907734	-3.89967865291756	-165.839731416913	-13.9829548410747	-158.333445251622	
2233500000	-11.5974798866156	-165.976928753099	-3.90613372505769	-165.850401008808	-3.90718870964145	-165.859192447028	-13.98780268752	-158.670791162943	
2234000000	-11.5945470180026	-165.446041650352	-3.90453384947078	-165.886195117925	-3.91007899005661	-165.876181563065	-13.9531840883818	-158.111902076502	
2234500000	-11.5710964760073	-164.816928651197	-3.91860217835729	-165.909187974798	-3.90596066425016	-165.934948226998	-13.9053506477253	-157.697173545341	
2235000000	-11.5306321835468	-164.521930028654	-3.91256463303926	-165.957699037777	-3.91116884862301	-165.974172756697	-13.8711141727562	-157.943770261179	
2235500000	-11.5600773329639	-163.652182392587	-3.91853009519486	-166.043129750246	-3.91003873117225	-165.950694145974	-13.864009441749	-157.570269357549	
2236000000	-11.5072303081952	-163.285820398204	-3.92503839768764	-166.020469855598	-3.92155296265983	-166.040504469285	-13.8297426221005	-157.318287648247	
2236500000	-11.5319259393782	-162.678800190009	-3.92579787789242	-166.078964969686	-3.92300300001126	-166.043333447184	-13.7848938421853	-156.967929878536	
2237000000	-11.5121038891535	-162.295172724177	-3.9155132500588	-166.0785964895	-3.91752547877177	-166.106892634822	-13.7776440440283	-156.765981517426	
2237500000	-11.5102414911003	-161.504295799953	-3.92983367592628	-166.109800099441	-3.92631895278825	-166.167935631428	-13.7216486318511	-156.605752444286	
2238000000	-11.4983467060288	-161.346487687083	-3.92917806229614	-166.200103857953	-3.92428327918139	-166.162622550065	-13.678547093682	-156.220184432002	
2238500000	-11.4897299635166	-160.549963904101	-3.93667924439454	-166.184782721169	-3.9227942855154	-166.210167704046	-13.6592491485972	-155.981170347391	
2239000000	-11.4898975181897	-160.124920620915	-3.92711234389846	-166.188694756708	-3.9296917731055	-166.211508333272	-13.610719327033	-155.702265518453	
2239500000	-11.4953207309059	-159.477672472369	-3.94024240154806	-166.214529055715	-3.93579382042114	-166.219319504086	-13.5717006803657	-155.425607476295	
2240000000	-11.5121768232128	-159.240678866739	-3.93721540952797	-166.269715462207	-3.94043763220087	-166.243644098406	-13.5093755280969	-155.372968578045	
2240500000	-11.518354220164	-158.702040723315	-3.93699889489421	-166.370318055399	-3.93879509187652	-166.325131698327	-13.5435750657469	-155.49242407679	
2241000000	-11.4975587518263	-158.02754478924	-3.93410006239318	-166.352671138659	-3.93892262418822	-166.306044357554	-13.4717444550852	-154.759761018056	
2241500000	-11.493387069499	-157.364859518434	-3.93700275025218	-166.290366253907	-3.94611645833526	-166.333695727761	-13.4694443016246	-154.437488425345	
2242000000	-11.51244941919	-156.86774886262	-3.94882991056679	-166.382894900175	-3.93934231141794	-166.39877738766	-13.4231024081427	-154.452792524042	
2242500000	-11.4901931104183	-156.710578585102	-3.94686056618858	-166.469527531334	-3.94664504147391	-166.352480980513	-13.3599437812432	-154.136259186864	
2243000000	-11.492174926633	-156.077791411221	-3.94335155221705	-166.408193128298	-3.94259351348237	-166.443385728731	-13.3071223704989	-153.723561417973	
2243500000	-11.5658134465021	-155.483807510117	-3.94881743954422	-166.484673940831	-3.94140080946374	-166.46206787156	-13.3238995887147	-153.843440362631	
2244000000	-11.5421532184051	-155.16920405754	-3.94671049993433	-166.578658607802	-3.94850323070923	-166.487194062945	-13.2582539562976	-153.537464633889	
2244500000	-11.5462513137834	-154.272186567667	-3.94759441540601	-166.524105110892	-3.94267943084427	-166.472021201409	-13.1871136578612	-153.091531061389	
2245000000	-11.5890220501956	-154.221775170951	-3.96137884019294	-166.530910220138	-3.96173055753584	-166.518311986287	-13.1661103343414	-153.443595644711	
2245500000	-11.5941187423294	-153.464211698569	-3.95624625943544	-166.552808748406	-3.95731375725836	-166.558518401757	-13.1609653686146	-152.99215084981	
2246000000	-11.6085647911045	-153.114337319597	-3.95855345268529	-166.595644177981	-3.95117940815614	-166.636515801581	-13.1183063291462	-152.928626175546	
2246500000	-11.6068527420984	-152.62094766057	-3.95404451368167	-166.652195852289	-3.95506068194073	-166.69249982201	-13.0684617132188	-152.822631090846	
2247000000	-11.6563868877692	-152.261022637107	-3.96862643339189	-166.636560498054	-3.95359211061035	-166.673711014493	-13.0080285901787	-152.563315939799	
2247500000	-11.6700178075626	-151.748594556021	-3.96561130753136	-166.708181942874	-3.9581243550224	-166.781988276231	-12.9580315236831	-152.456664968763	
2248000000	-11.7028627471985	-151.311755928054	-3.95474472011166	-166.702477050647	-3.95632959386666	-166.783287366942	-12.9221427063503	-152.226930645272	
2248500000	-11.7068447482306	-150.906157079266	-3.96412065793935	-166.736545274434	-3.96595312197113	-166.806445561159	-12.8619538528999	-152.130466361395	
2249000000	-11.7169583358015	-150.487849585551	-3.95418875821713	-166.815484158981	-3.96794732863608	-166.792113979409	-12.8675511256384	-152.119148178949	
2249500000	-11.7883202920852	-149.793908233711	-3.95914330325009	-166.884232377614	-3.9695438874648	-166.834795177175	-12.8017507688806	-151.637329775974	
2250000000	-11.8112947092043	-149.619646231928	-3.96276583634346	-166.905077242111	-3.96725572196449	-166.893840668783	-12.7745242006798	-151.573407474892	
2250500000	-11.8385287315681	-149.032722583879	-3.96631743432439	-166.89818354375	-3.97602193905098	-166.865437995414	-12.7369684948316	-151.532179485215	
2251000000	-11.8563630982322	-148.688514642577	-3.96603990226347	-166.929313379142	-3.96825258625262	-166.97982665292	-12.6857486561983	-151.426526838625	
2251500000	-11.9526089546395	-148.269512747989	-3.96810585804754	-167.00492599894	-3.96453349346105	-166.963548519954	-12.6474485879172	-151.200522428814	
2252000000	-11.9361789032854	-147.869744101194	-3.9722040658066	-167.055357475184	-3.97330422539401	-167.012693730139	-12.6034690206465	-151.138199774582	
2252500000	-11.9592026336288	-147.466689143805	-3.97240309703168	-167.030219345654	-3.96299920601659	-167.009034103992	-12.5831935758014	-150.89237718327	
2253000000	-12.000847666612	-147.108947311781	-3.98080820793546	-167.10365278371	-3.97119522938704	-167.0948072196	-12.5484023615622	-150.975522957696	
2253500000	-12.0545475718504	-146.677076317686	-3.97167575596896	-167.131117287161	-3.98358151544751	-167.120503545568	-12.5245567254337	-150.619206184052	
2254000000	-12.067106728598	-146.52788435649	-3.97652392570757	-167.219877270235	-3.9733247992554	-167.188564965551	-12.4598762302507	-150.918347314312	
2254500000	-12.1538578257604	-145.944544275558	-3.98082324014922	-167.226688987136	-3.97963921577258	-167.181459314237	-12.4467511447647	-150.699585814186	
2255000000	-12.1949672012743	-145.306720871358	-3.98198573692628	-167.298946414764	-3.97221644119236	-167.24668839144	-12.3653700408772	-150.421103890728	
2255500000	-12.2907286523845	-145.022430108138	-3.99354130796973	-167.271925966711	-3.97523108764576	-167.30197522597	-12.3938709049809	-150.422903262368	
2256000000	-12.2525177008445	-144.9524137025	-3.969831237029	-167.365779407612	-3.98088695486789	-167.324489983741	-12.2889856716182	-150.561738149246	
2256500000	-12.3507994121529	-144.357460156115	-3.99044065618938	-167.301061903399	-3.98322365629902	-167.380357310723	-12.2851027934693	-150.230483533043	
2257000000	-12.3898763290709	-144.188402517259	-3.98253605864256	-167.469479358905	-3.97919487562909	-167.362804363091	-12.234809903085	-150.431724253964	
2257500000	-12.4361208793919	-143.767383197817	-3.99341448981474	-167.492168922041	-3.97739469908259	-167.514881786129	-12.1867230399901	-150.376360956472	
2258000000	-12.5003016782862	-143.393278471453	-3.98092331734125	-167.540966646272	-3.97403929655792	-167.423399570367	-12.1508650818269	-150.072492065824	
2258500000	-12.5714625036151	-143.151531824347	-3.99559592329672	-167.527791125674	-3.9784768833924	-167.533364135658	-12.1560655688849	-150.14625827289	
2259000000	-12.6182480943626	-142.949356632417	-3.99582395693562	-167.613910344665	-3.98887917258128	-167.511505213031	-12.0866929784571	-150.158755389996	
2259500000	-12.6705583777816	-142.675129168026	-3.98878779077026	-167.632331886571	-3.98623565045408	-167.567708170519	-12.0755008056681	-149.972490163436	
2260000000	-12.7478898388572	-142.165047930923	-3.9841832890172	-167.691540860811	-3.97744253346867	-167.642652341015	-12.0790603378556	-149.896993245715	
2260500000	-12.8098892858806	-142.063037310431	-3.99613550206194	-167.741889738795	-3.99170176085509	-167.697162825856	-11.9953639028696	-150.318166223444	
2261000000	-12.8576569966563	-141.898800180967	-3.99266246207096	-167.766560351747	-3.98241150488545	-167.728562405063	-11.9637752747761	-149.975556215051	
2261500000	-12.9788219945385	-141.693185296241	-3.99092002108191	-167.791591704053	-3.98663536834687	-167.824155925314	-11.936091495513	-150.190709596211	
2262000000	-12.987721088716	-141.233107712701	-3.99147206903804	-167.896595194698	-3.98730051726185	-167.827210148955	-11.8991771891339	-150.260162924656	
2262500000	-13.1162198153021	-141.107966313325	-3.99255713352389	-167.927917037042	-3.98120278848935	-167.884989796208	-11.8708303643053	-150.250203034711	
2263000000	-13.1586481780588	-140.738799390727	-3.99433509070479	-167.979419666275	-3.99568815546103	-167.96622579406	-11.8914734374309	-150.243412742253	
2263500000	-13.2266634859703	-140.752600649215	-3.9955986881713	-168.035974630124	-3.9889934437512	-167.998745652065	-11.8220669560181	-150.253954204587	
2264000000	-13.3365863563394	-140.327256023831	-4.00066201460503	-168.062339045226	-3.99855633798834	-168.102513136333	-11.8368987177195	-150.366303680723	
2264500000	-13.39879066035	-140.27089563192	-4.00087120552889	-168.132404730727	-3.99251873954495	-168.06922976112	-11.7764277014186	-150.258964591343	
2265000000	-13.4542931140903	-140.198943794443	-3.99087017113074	-168.169321014316	-3.99934035391707	-168.145182901518	-11.7950046627623	-150.348266179709	
2265500000	-13.5759840397421	-140.030135360015	-3.99901862250537	-168.283293487489	-3.99846485440379	-168.190856761669	-11.7072160972709	-150.497912594958	
2266000000	-13.6941735192859	-139.982560923374	-4.0056867712485	-168.255646712347	-3.9965620684865	-168.243492587584	-11.6814696196107	-150.613437531744	
2266500000	-13.696725790605	-139.689737447747	-4.0026416340776	-168.326348505182	-3.99940665616482	-168.358226832982	-11.6907074931659	-150.647871381602	
2267000000	-13.8150196087001	-139.713050466077	-3.99873749044156	-168.430370616238	-3.99372363004781	-168.397532113318	-11.6627924466066	-150.675591856174	
2267500000	-13.8983923398904	-139.684717892379	-3.99660536972654	-168.436038627156	-4.01092678290016	-168.420348840287	-11.667600712813	-150.501336032837	
2268000000	-14.0004065388501	-139.50289375284	-4.01247036246014	-168.514990111975	-4.00481944000422	-168.493769527722	-11.6111271453412	-150.812423226354	
2268500000	-14.0776211084662	-139.4130957921	-4.00456611087972	-168.591383579443	-4.00761616878914	-168.510943067089	-11.6174659897273	-150.996436489873	
2269000000	-14.1619557916734	-139.358260088319	-4.00791967916949	-168.567187786412	-3.99765221794778	-168.564320249873	-11.5645555377362	-150.997813227819	
2269500000	-14.2827422306056	-139.341312986065	-4.0089368178293	-168.679432420331	-4.00198309906961	-168.738450877659	-11.5476280195644	-150.9317084009	
2270000000	-14.357038428661	-139.435397147849	-4.00863207416026	-168.75491702673	-4.00336603956946	-168.731628696375	-11.5262121446682	-151.185776597562	
2270500000	-14.4754731894989	-139.580957360362	-4.01364192657153	-168.828134378413	-3.99901935309205	-168.817030559891	-11.5444722790162	-151.329862056906	
2271000000	-14.5407949728834	-139.511423457863	-4.01955841332378	-168.825494727714	-4.00699980742791	-168.939657875049	-11.4876047491021	-151.539633912286	
2271500000	-14.6583681753032	-139.672671656871	-4.00628065035285	-168.938762734897	-4.00886183254079	-168.94565737617	-11.462732622482	-151.723413998911	
2272000000	-14.7624269472602	-139.66336057733	-4.01379347612218	-169.05330509532	-4.00879094274355	-168.950638919008	-11.4586821321419	-151.715690113148	
2272500000	-14.8589190885616	-139.924791831681	-4.01300538316443	-169.082039761219	-4.00676102819105	-169.060128107189	-11.4272537069422	-151.679150930373	
2273000000	-14.9855407131936	-140.326435714213	-4.01169261293194	-169.138456608255	-4.00907243013562	-169.10374578812	-11.4114897611182	-151.853155450924	
2273500000	-15.0384886691741	-140.265152608007	-4.01216987065605	-169.189099040254	-4.00830846909723	-169.161428208157	-11.4108923056187	-152.133107127711	
2274000000	-15.1320927631175	-140.523877671829	-4.01203542036853	-169.217981458454	-4.01162874089986	-169.217021529839	-11.3960147672818	-152.211440126077	
2274500000	-15.2501174024592	-140.821462853345	-4.01385579015478	-169.354615439853	-4.00949956963353	-169.330642569331	-11.3882927160581	-152.460003364809	
2275000000	-15.3184647219271	-140.941205994294	-4.01950889922262	-169.409478598781	-4.01884207451274	-169.396770374663	-11.3685419650901	-152.577732416194	
2275500000	-15.4088733759009	-141.437148355061	-4.02449014000433	-169.458806476325	-4.01017470545709	-169.455680601721	-11.3406893778638	-152.805094762799	
2276000000	-15.5844218503502	-141.762070522781	-4.0259775589112	-169.515083087239	-4.01251009354948	-169.548868183382	-11.3618504611337	-152.81680247917	
2276500000	-15.6926148594298	-142.183650754294	-4.02528851284129	-169.652474980963	-4.02203370894131	-169.588576742411	-11.3167545318795	-153.08757908292	
2277000000	-15.7701974411998	-142.553720919891	-4.02901565037727	-169.6958401703	-4.01779116723501	-169.632045000188	-11.3400558665884	-153.236248346355	
2277500000	-15.8431001235976	-142.900835998927	-4.02431721062459	-169.78318855194	-4.03640081738569	-169.722313641517	-11.3145266364734	-153.562293836318	
2278000000	-15.906671688215	-143.51531662408	-4.02916451162675	-169.768669130061	-4.01651798360066	-169.770813459402	-11.30738993389	-153.459734290596	
2278500000	-16.0468117746617	-144.122090186083	-4.03125545503355	-169.900146391614	-4.02948800824336	-169.932856101921	-11.284504317468	-153.95242412776	
2279000000	-16.1466089008774	-144.479148863993	-4.02037423558307	-169.95814192894	-4.03770851418275	-169.99578496374	-11.2843808839199	-154.134509808948	
2279500000	-16.2213562085677	-144.914136447167	-4.0344225690229	-170.035750217084	-4.0406768042991	-170.003895687436	-11.2945557736869	-154.223509976667	
2280000000	-16.2677129482669	-145.560257560233	-4.03017593178384	-170.133311046152	-4.02868090971293	-170.100572194035	-11.2593814054944	-154.283997474702	
2280500000	-16.3905761956828	-146.130083795587	-4.02833094788116	-170.215802065672	-4.02358588993481	-170.264912469213	-11.2490511299308	-154.748993038041	
2281000000	-16.4888442947031	-146.98333071223	-4.03353492806322	-170.3137352051	-4.02995764593196	-170.271360239972	-11.2356853082789	-154.732168362985	
2281500000	-16.5585298808833	-147.798561657967	-4.03403288794334	-170.334358945361	-4.04155478400582	-170.343008853406	-11.228024211297	-155.042299552073	
2282000000	-16.6647364698944	-148.31035053952	-4.04311692952141	-170.375019586096	-4.03650650738174	-170.400723582272	-11.2353956817109	-155.107907507408	
2282500000	-16.8100596587371	-149.172581857975	-4.04621356369206	-170.530382813441	-4.04134382462008	-170.520360669051	-11.230851380104	-155.447628608543	
2283000000	-16.7944345319669	-149.928053517665	-4.04090752044978	-170.586459078785	-4.04128556730712	-170.56016620266	-11.2425298825928	-155.661554523026	
2283500000	-16.9119967901811	-150.822840135174	-4.04838332257183	-170.644057237037	-4.04566184142703	-170.596669132803	-11.2073926794249	-155.79666875242	
2284000000	-16.9513980299474	-151.516454698218	-4.04411847272505	-170.644004612347	-4.04277765347948	-170.730645280554	-11.2017738065897	-155.947309873219	
2284500000	-16.9880062428312	-152.533165892887	-4.04569781591335	-170.841780448427	-4.04842103983184	-170.823508262055	-11.2429234908579	-156.347783585298	
2285000000	-17.0280897736962	-153.666683792223	-4.05205155629232	-170.852954018601	-4.04505911849629	-170.901767065435	-11.2158778718127	-156.285300009685	
2285500000	-17.0990795433486	-154.696651460215	-4.05526940282621	-170.957626926692	-4.04947012335334	-170.986291717621	-11.1879839082006	-156.694806903698	
2286000000	-17.1944285759679	-155.577868455984	-4.0518532709317	-171.03512329118	-4.05899116414611	-171.039945564234	-11.1794918888004	-156.933443804023	
2286500000	-17.1649651511883	-156.54282683565	-4.05227474633939	-171.126407968455	-4.05338045787634	-171.060805781803	-11.2000068846865	-157.028869777243	
2287000000	-17.1381377275213	-157.423356993102	-4.05460388311771	-171.198315843516	-4.05200126486175	-171.249473093426	-11.185257646852	-157.336460747645	
2287500000	-17.2512224722891	-158.848160788487	-4.06101562016301	-171.281619313643	-4.06316123734472	-171.274878860901	-11.1977717322036	-157.513639624289	
2288000000	-17.2581515641724	-159.235306318527	-4.05953314481276	-171.29482264167	-4.06116587460869	-171.340954994969	-11.1856241406049	-157.686905791999	
2288500000	-17.2239048627335	-160.434096844473	-4.06206085503403	-171.476545609825	-4.04816644496015	-171.463420054827	-11.1540042268748	-158.072690526289	
2289000000	-17.2603919386692	-161.460685267205	-4.06539584133595	-171.537043642432	-4.0686498708571	-171.460766501782	-11.1671832180734	-158.309010550221	
2289500000	-17.2578069322322	-162.727959329554	-4.06982633097031	-171.619382713446	-4.06191149899214	-171.541127736512	-11.1851909876949	-158.475315514103	
2290000000	-17.267763228421	-163.741605711961	-4.07132928057753	-171.620656179661	-4.06803889976769	-171.598912288807	-11.1949804247771	-158.462120775299	
2290500000	-17.2840995683251	-164.581008276853	-4.08506912051842	-171.682433691942	-4.06885429304693	-171.758156528852	-11.1737314994993	-158.73717036336	
2291000000	-17.2341057474991	-165.640506729241	-4.07536454391937	-171.800149077115	-4.07360067805856	-171.829866747796	-11.1962542444972	-159.04987806188	
2291500000	-17.2415170092445	-166.859015494829	-4.09168396044227	-171.950651884212	-4.07855966001203	-171.938804261928	-11.1989876199174	-159.249202263885	
2292000000	-17.1078133470908	-167.803269586181	-4.07961732848647	-171.938601210977	-4.06693791596814	-171.966582180106	-11.1343425483054	-159.357287874726	
2292500000	-17.0616250804984	-168.690400928493	-4.08498226129309	-171.98113131421	-4.07657970373047	-172.081141136298	-11.1728289746411	-159.69258018136	
2293000000	-16.9737126573216	-169.920795805987	-4.08364810735716	-172.172170021217	-4.0808848602167	-172.064748052571	-11.1599655187956	-159.899050772116	
2293500000	-16.8983007307227	-170.976205410442	-4.09011750002199	-172.240735757106	-4.08579366495563	-172.18035626431	-11.1627680951922	-160.08878334933	
2294000000	-16.8927908407527	-171.613122919447	-4.09712175618724	-172.309333678445	-4.08158223227427	-172.301114021488	-11.1703565304892	-160.17975418617	
2294500000	-16.7797272780008	-172.676868177046	-4.09759492324229	-172.367254258963	-4.08095192102206	-172.345283934462	-11.1606038803882	-160.695115165654	
2295000000	-16.7136504771859	-173.965667797318	-4.09775311564155	-172.383861645952	-4.0887079230357	-172.494489507367	-11.1874571070486	-160.544579420763	
2295500000	-16.6057742042157	-174.676331697724	-4.09666254802101	-172.474557053965	-4.0959548178	-172.588614228126	-11.1653172134271	-160.838209565167	
2296000000	-16.5853041956022	-175.421125397663	-4.09788383781603	-172.525652649852	-4.08831167506684	-172.614142560659	-11.1675191120323	-160.844032148153	
2296500000	-16.5046419639066	-176.099626173245	-4.10895757329594	-172.660182084998	-4.10443706754016	-172.679424741408	-11.1860594199081	-161.099063972941	
2297000000	-16.3779547394624	-177.201735499675	-4.11008258422199	-172.744048900641	-4.10601528608017	-172.799651264954	-11.1654619816058	-161.46684194764	
2297500000	-16.2597165728499	-177.824258010847	-4.10812318597268	-172.749478266792	-4.10062492086023	-172.811365395298	-11.1525053782316	-161.544928291812	
2298000000	-16.1648525087448	-178.073235493581	-4.10382317321409	-172.878874701495	-4.11689961344723	-172.878018663819	-11.1657359210952	-161.678729209114	
2298500000	-16.1136732442633	-179.030854810851	-4.12101537961476	-173.008264533663	-4.1162614923872	-172.931154860913	-11.1650984811126	-162.163627827125	
2299000000	-15.9663589681003	-179.918482217543	-4.12420038834088	-173.047128689603	-4.13110807072186	-173.071594914905	-11.1633362443963	-162.227800397413	
2299500000	-15.8289354234851	179.342099184935	-4.12796989069807	-173.113415289506	-4.11547100532283	-173.145621481036	-11.1550814518547	-162.43601925053	
2300000000	-15.7299824385239	179.08682798238	-4.11408796258582	-173.22122702192	-4.11467155804559	-173.19317436093	-11.153330611392	-162.601574189829	
2300500000	-15.6353301276809	178.235202529522	-4.13178616115619	-173.272079777744	-4.12393372736326	-173.252054984412	-11.1506541299564	-162.596830957532	
2301000000	-15.5119607693973	177.696502813752	-4.1341774665121	-173.31165720036	-4.12239185894161	-173.341174362783	-11.162572952369	-162.857306390146	
2301500000	-15.3764713441809	177.287947011582	-4.13968819087442	-173.393878813205	-4.13334626164091	-173.462774669264	-11.1825144887548	-163.035286526212	
2302000000	-15.2621108189107	177.221533502849	-4.13545446733849	-173.411257129978	-4.12560995808972	-173.43067034642	-11.1457607446985	-162.981933556389	
2302500000	-15.1179709585634	176.523152868166	-4.1476565992943	-173.545130596717	-4.14189193989781	-173.602901487419	-11.1676738882225	-163.290650725025	
2303000000	-15.0657809488132	176.064224584997	-4.1259271131844	-173.52062609367	-4.15081498247759	-173.606470173914	-11.1694283426622	-163.363327946067	
2303500000	-14.9230227409468	175.616428738017	-4.14999893085666	-173.686012046327	-4.14203527058651	-173.705770275529	-11.1459178667641	-163.37466452236	
2304000000	-14.7704435307325	174.984307456559	-4.15395048391854	-173.795546233621	-4.147027706236	-173.705292659686	-11.1595393874616	-163.737236412261	
2304500000	-14.6491779583365	175.071391315063	-4.15792201179935	-173.854681141189	-4.15787149140837	-173.8230818505	-11.1634364741828	-163.932031673914	
2305000000	-14.517008441832	174.818091737494	-4.16169942240094	-173.886001448475	-4.16174880818319	-173.926993860913	-11.1479165678023	-163.921083805135	
2305500000	-14.3753663205367	174.787999285005	-4.1580254340518	-173.953405106838	-4.15581744411327	-173.981092779523	-11.164939864043	-164.002559897044	
2306000000	-14.2912338620453	174.225952834136	-4.17762470439671	-174.055790504877	-4.16201750577143	-174.062689012571	-11.166395526545	-164.240653531004	
2306500000	-14.1768383437225	174.071899825791	-4.15770275821894	-173.997858257516	-4.17451092209799	-174.179057742317	-11.1831498614653	-164.308404459104	
2307000000	-14.0523852514225	174.156981479604	-4.16851402693161	-174.16896520385	-4.17007602991416	-174.117430044578	-11.1384721961001	-164.499577979367	
2307500000	-13.9090709594192	173.856259304573	-4.1719326572937	-174.252033670042	-4.17189907967832	-174.264001287515	-11.1539023399475	-164.719589206725	
2308000000	-13.7888048435715	173.688718382408	-4.18169543700727	-174.261453916169	-4.18664614442566	-174.230710201539	-11.182082458155	-164.45557984679	
2308500000	-13.6771634382665	173.485505363199	-4.18281123233811	-174.347493259332	-4.16790152382153	-174.353140057154	-11.1925143877961	-164.672015397117	
2309000000	-13.5873497329522	173.475588632776	-4.18462623410167	-174.405932144855	-4.17750125898668	-174.347230268467	-11.1455304308163	-164.798112281001	
2309500000	-13.4774432602611	173.410042353356	-4.19154451864177	-174.419597010738	-4.18457807427238	-174.504749862573	-11.1696299430634	-164.982255632356	
2310000000	-13.346786414723	173.520412051855	-4.18963544586751	-174.483377097558	-4.19116574737924	-174.495425906443	-11.1462679499566	-164.72148206931	
2310500000	-13.2314276088997	173.23487524592	-4.20096409107943	-174.564640234717	-4.18947146147317	-174.576181573131	-11.1664819014781	-165.000747217704	
2311000000	-13.0968190806134	173.47438663386	-4.18622508468505	-174.522487312962	-4.19338938906691	-174.654033220461	-11.1280423905538	-164.955761529569	
2311500000	-13.01151040113	173.254290771637	-4.20787635422079	-174.630952442916	-4.19303152094976	-174.670051039253	-11.149738580244	-165.169789061462	
2312000000	-12.8860869200775	173.388207215076	-4.20423614804334	-174.655504420959	-4.18406279595193	-174.757101685758	-11.1493591617126	-164.8990305316	
2312500000	-12.760359676929	173.462152857827	-4.20617686368148	-174.879778400802	-4.20342983040539	-174.747552379414	-11.1608422181057	-165.237932442715	
2313000000	-12.7052180425478	173.484359562907	-4.22298313007777	-174.831397398481	-4.20859081472438	-174.876676496796	-11.1295045507824	-165.14353398977	
2313500000	-12.5570063427628	173.544511722477	-4.21168508556211	-174.838558530279	-4.22088302628813	-174.898727277423	-11.1358120923135	-165.164366677314	
2314000000	-12.4531216909178	173.506728885587	-4.21550498217651	-175.024846169461	-4.21957579396906	-174.965717183998	-11.1435846912049	-165.237304283195	
2314500000	-12.3871723250632	173.516748113608	-4.22953869923441	-174.985993687002	-4.22707779775401	-175.10525142395	-11.1424739763783	-165.248709262965	
2315000000	-12.2794939436143	174.087927853896	-4.21854775172957	-175.088488481773	-4.22020519548722	-175.142646806926	-11.1001457878004	-165.380977848929	
2315500000	-12.1938230843997	173.93945719282	-4.22768748768209	-175.183755216268	-4.232603877053	-175.09473672187	-11.0975140197673	-165.292851952693	
2316000000	-12.0941313784682	174.148625337316	-4.24016107832101	-175.082787959556	-4.23037808042772	-175.172980586081	-11.1322173759085	-164.977291189728	
2316500000	-11.9836345338507	174.083511528623	-4.24019261319343	-175.187732465613	-4.2497643431141	-175.175354434593	-11.1307701085229	-165.122598723715	
2317000000	-11.8743538537825	174.267146184942	-4.25795133262794	-175.247639874785	-4.23802917573834	-175.211687943286	-11.1302168275116	-165.246132091477	
2317500000	-11.7752205171007	174.534413418793	-4.23620235340547	-175.298246800376	-4.2500901822817	-175.370224710696	-11.0783532880629	-165.065616946699	
2318000000	-11.7165650394061	174.904580601116	-4.25637752143329	-175.373919062844	-4.2465118934844	-175.323985743258	-11.0934343658032	-165.120269251956	
2318500000	-11.633814122968	175.038783754561	-4.26388654022365	-175.430538352139	-4.25471769361051	-175.383898954948	-11.0955777235231	-164.972983499874	
2319000000	-11.5515888603584	175.35131275444	-4.26216493428924	-175.399413023966	-4.25107225283596	-175.374401508049	-11.0658121572781	-164.798228516027	
2319500000	-11.493640785256	175.333380229378	-4.26060081283863	-175.416447328986	-4.26904394321829	-175.441215854722	-11.0743362916866	-164.733102517976	
2320000000	-11.3783275366085	175.637339032381	-4.26461350701685	-175.456791993296	-4.26038424606387	-175.536132257979	-11.0602794769685	-164.816799653825	
2320500000	-11.2861161370561	176.015008420927	-4.27405152167465	-175.516413989954	-4.27067283435727	-175.541102450235	-11.0680930518547	-164.578732702061	
2321000000	-11.2057083490903	176.261461331581	-4.26741889694869	-175.548925184651	-4.26572382839445	-175.598715660004	-11.0839601133862	-164.757473509964	
2321500000	-11.1421006790508	176.511544347143	-4.27945571264381	-175.639594980415	-4.27689124958445	-175.650421349734	-11.0384171677875	-164.753245517315	
2322000000	-11.0507088406375	176.553063756648	-4.28789083384549	-175.641733440321	-4.28279467884982	-175.674687890105	-11.0617691835464	-164.558477228916	
2322500000	-10.9716489563041	177.011233179472	-4.28553751257527	-175.687904124596	-4.27751934720471	-175.653080743092	-11.071756977238	-164.392504801288	
2323000000	-10.9104155912127	177.210395656375	-4.28889292182372	-175.689120618764	-4.29335236079104	-175.705214116444	-11.0577057856878	-164.242325194941	
2323500000	-10.8269806833002	177.510153373789	-4.28992550172971	-175.748383069569	-4.29668668666042	-175.845627312585	-11.0354527661003	-164.228111694168	
2324000000	-10.7575065075396	178.019032966368	-4.29392862209138	-175.834176836825	-4.28755961495119	-175.795505692531	-11.0288646404382	-164.326885836793	
2324500000	-10.6976370858085	178.332721346227	-4.29765572926586	-175.830438705877	-4.3000334396949	-175.890162686116	-11.0094857335523	-163.950910307187	
2325000000	-10.6425033097635	178.503266374074	-4.30307496856893	-175.857384487085	-4.29897744467861	-175.882239541851	-11.0047927459574	-163.914279957306	
2325500000	-10.562781303913	178.614127979512	-4.30062216416295	-175.930332410189	-4.31244577794066	-175.926050035556	-11.010841425706	-164.126276679159	
2326000000	-10.4989204080307	179.127472541051	-4.32003565423081	-175.923595404442	-4.30643909993599	-175.97142707073	-10.9818221846948	-163.718242027086	
2326500000	-10.4350009162191	179.285104862503	-4.31713066914779	-175.965805448253	-4.32233096747653	-176.042315355317	-11.0158843757621	-163.777372594222	
2327000000	-10.3857904223497	179.731352435995	-4.33124323083564	-176.020593385403	-4.31552135497651	-176.066755104108	-10.9816264547037	-163.516570919	
2327500000	-10.3241124006456	-179.789308660327	-4.32000215284338	-176.014516338686	-4.31360639003575	-176.024389607697	-10.9535078146838	-163.302343344608	
2328000000	-10.2514835117522	-179.613052544122	-4.32718968410601	-176.066890351663	-4.33106382633056	-176.078543789894	-10.924137849922	-163.085632249928	
2328500000	-10.1928399231146	-179.125997396281	-4.32606477657343	-176.085079189831	-4.32894897864192	-176.113224561001	-10.9609372557712	-163.10301528247	
2329000000	-10.1425359382165	-178.970448760084	-4.34259670204317	-176.122941208475	-4.3276855598761	-176.189021326097	-10.9077598355558	-163.122507015355	
2329500000	-10.0965637136731	-178.485207888495	-4.33145672079667	-176.141331747282	-4.32882393593125	-176.187197938632	-10.9107463981084	-162.93597107385	
2330000000	-10.0281339811343	-177.995788384028	-4.34268925370913	-176.192264765393	-4.32234994198429	-176.152028592071	-10.9030705125347	-162.790588123077	
2330500000	-10.019233965537	-177.673903159642	-4.34635975838914	-176.182253328649	-4.34197870191301	-176.175399669373	-10.9227692758826	-162.607814669594	
2331000000	-9.93566018409631	-177.217772745538	-4.34572899041565	-176.13343665752	-4.34468470943182	-176.295076878584	-10.8932285221507	-162.440552851824	
2331500000	-9.88564335582511	-176.735886480761	-4.34431771349676	-176.198762959276	-4.35001884414111	-176.190907357553	-10.8834388748948	-162.089160005599	
2332000000	-9.85273819443007	-176.655000029274	-4.34585233338388	-176.241560967967	-4.35581986179109	-176.272915809138	-10.8764778521534	-162.150246415676	
2332500000	-9.81937188503305	-176.23480321549	-4.35791895671436	-176.304119050834	-4.35645529289194	-176.229300132954	-10.8615545642183	-161.973210799779	
2333000000	-9.75993935902051	-175.849852699617	-4.36359239761594	-176.293236025831	-4.35742711498983	-176.309482383666	-10.8698084418851	-161.757575947098	
2333500000	-9.73744685388047	-175.457445945238	-4.37013589451022	-176.306243812601	-4.36451116536408	-176.316588848501	-10.8445841055122	-161.615306409531	
2334000000	-9.68019008297844	-175.046891558566	-4.36005889150724	-176.352913968982	-4.35930351641766	-176.425696669813	-10.8250061824882	-161.445231697156	
2334500000	-9.65640894183352	-174.716988200008	-4.36788049733767	-176.408766261788	-4.36677916360148	-176.43093588227	-10.8196785333986	-161.282109703959	
2335000000	-9.61998541364824	-174.333839403553	-4.37144407991254	-176.412145808072	-4.37672378880782	-176.369610425615	-10.788408402573	-161.103705007252	
2335500000	-9.59247703676778	-173.969853856581	-4.37979135826735	-176.432597589237	-4.37072368741265	-176.387444477759	-10.7847950810884	-161.051439145722	
2336000000	-9.54020411886148	-173.686033706149	-4.38110617090285	-176.483587274171	-4.37333140694037	-176.478104813737	-10.7778636635951	-160.779741835648	
2336500000	-9.50802777118991	-173.225947558926	-4.3770316675337	-176.461638811911	-4.38203303033802	-176.508490223974	-10.7913534082549	-160.81218808931	
2337000000	-9.48712173407185	-172.910168728993	-4.39156079796423	-176.492762445206	-4.38528589078687	-176.464405605005	-10.7578498400089	-160.414309055652	
2337500000	-9.46267131189997	-172.281075149352	-4.38850121505392	-176.4746185103	-4.38319524869153	-176.512866573997	-10.7062628438227	-160.336018153876	
2338000000	-9.45223036145421	-171.858380213258	-4.38717483631012	-176.548006296024	-4.38744124363769	-176.488149046117	-10.7233517822697	-160.207601887803	
2338500000	-9.40100265265875	-171.520120193408	-4.39543082557038	-176.509174548057	-4.39226607949806	-176.468884290975	-10.7069000390331	-159.869459885911	
2339000000	-9.37301591228379	-171.215369962566	-4.39271762837482	-176.436457696777	-4.39408039252792	-176.514398465421	-10.6728470319644	-159.855738955121	
2339500000	-9.34727736356408	-170.765274254148	-4.39750340527218	-176.533728820409	-4.39564422512635	-176.594116896445	-10.6622809410668	-159.627140745065	
2340000000	-9.33277951630537	-170.427961869075	-4.39809025277142	-176.551378886441	-4.40233925662196	-176.527875146693	-10.671358693873	-159.3722539195	
2340500000	-9.30181330518943	-169.950454509275	-4.40740350892848	-176.607209739852	-4.41195162144251	-176.608720021655	-10.6498134473642	-159.382734798481	
2341000000	-9.30190990938035	-169.543125849348	-4.40754956479304	-176.582290062643	-4.409110749447	-176.609603827519	-10.628844091495	-159.086822551664	
2341500000	-9.27263110015464	-169.199097649018	-4.40610890458729	-176.631194825451	-4.41522908452054	-176.623521616993	-10.6338744367159	-159.02445279174	
2342000000	-9.26005805363361	-168.732369437921	-4.41479686485157	-176.670073648863	-4.41278265773152	-176.643196213909	-10.5928983126996	-158.86440838953	
2342500000	-9.22734074985131	-168.307795162229	-4.40969068827047	-176.644197979904	-4.41149054587847	-176.671544544821	-10.5529234481248	-158.634171767333	
2343000000	-9.21564965915069	-167.909540875266	-4.41762511743628	-176.673709368347	-4.41608706774367	-176.700970038413	-10.5595144574175	-158.530489138039	
2343500000	-9.22383382205856	-167.463157031569	-4.43045495815796	-176.623320472846	-4.42057993012642	-176.658262676421	-10.5584722267767	-158.217986971347	
2344000000	-9.18223861254279	-167.241189265501	-4.42879782943005	-176.708079634609	-4.42104100310044	-176.673856202959	-10.5565655370108	-158.118600589685	
2344500000	-9.16960347215672	-166.767450248977	-4.43041082724187	-176.776449414091	-4.42437782171479	-176.714745012623	-10.5273899671223	-157.811345242949	
2345000000	-9.17847718063664	-166.37344997429	-4.42959711773695	-176.685150399904	-4.40898352992085	-176.814971589044	-10.5021135271868	-157.825345226952	
2345500000	-9.18456470532506	-165.74537900204	-4.43470580332153	-176.765789510677	-4.42858283599594	-176.728353490731	-10.5215634852371	-157.658434931455	
2346000000	-9.14891076499082	-165.622171573702	-4.44513539028873	-176.772864979932	-4.43481284236173	-176.774380886055	-10.4951175486405	-157.546837815082	
2346500000	-9.15877671823899	-164.921473669682	-4.42889438997606	-176.774762607971	-4.44343081634019	-176.765456238541	-10.4706011552963	-157.216442113872	
2347000000	-9.15419743557913	-164.672128223463	-4.43411832796076	-176.761755316746	-4.42522342374839	-176.804468353521	-10.4437025309101	-157.377227860499	
2347500000	-9.16840799423103	-164.254076962962	-4.44560069368127	-176.808938425981	-4.44353689089756	-176.786926494415	-10.4331940215683	-157.107330986191	
2348000000	-9.16525730438204	-164.038129070807	-4.44632836091953	-176.802395914658	-4.43463501299932	-176.849047727869	-10.4159462869875	-157.125210667576	
2348500000	-9.14711257737186	-163.580271888995	-4.44942545743905	-176.846225815207	-4.45385118113223	-176.773347887174	-10.4350569260997	-156.885552864501	
2349000000	-9.16340252001418	-163.182858321421	-4.45104164078842	-176.765716946268	-4.45031997729423	-176.855695083626	-10.3904310344711	-156.754596111372	
2349500000	-9.16643438738253	-162.778600129497	-4.45112452411286	-176.869744083411	-4.43432944146913	-176.884255944042	-10.3752213309497	-156.789984203745	
2350000000	-9.14610774355824	-162.286061713077	-4.44332716094871	-176.882596345832	-4.44496439117781	-176.815649393102	-10.3435949591773	-156.517667828463	
2350500000	-9.18168269210649	-161.871437290685	-4.45244386538864	-176.851557691896	-4.4557553801769	-176.854812394633	-10.3772562026126	-156.34668573142	
2351000000	-9.18666596186808	-161.515767831971	-4.46092906478661	-176.895975157364	-4.45975605206784	-176.90996884139	-10.3598559516548	-156.349257553092	
2351500000	-9.19183312809399	-161.142235473162	-4.46832486651351	-176.908601652724	-4.45124751179841	-176.936635736261	-10.3485155935865	-156.1725288778	
2352000000	-9.18625598262627	-160.833340136372	-4.44546215763924	-176.907834512746	-4.4461012455643	-176.933277648941	-10.3114879955068	-156.117955313655	
2352500000	-9.22692281061414	-160.40030336413	-4.46373585662775	-176.987143574882	-4.47014326572935	-176.970361648081	-10.3380244656119	-155.918859829874	
2353000000	-9.22462178888291	-160.043488667137	-4.46025511702028	-176.984873508366	-4.46435479970271	-176.964955654478	-10.272278045367	-155.984654390637	
2353500000	-9.24708778504814	-159.814559432501	-4.46548075620303	-177.037767517132	-4.46180904743476	-177.013433365375	-10.2612869611049	-155.771328839651	
2354000000	-9.24374410283017	-159.203088300836	-4.47193242118628	-176.939636052015	-4.45794919846332	-177.036744283437	-10.247712271785	-155.673786792824	
2354500000	-9.28576325953195	-158.979899721499	-4.46787221761833	-177.050914392538	-4.46738817836023	-177.021805729944	-10.2394220485693	-155.766892649544	
2355000000	-9.27969453967282	-158.636842571102	-4.46727006994608	-177.065632697202	-4.46719870595784	-177.008202637697	-10.2307764481112	-155.74588458108	
2355500000	-9.32459380577105	-158.146083577416	-4.47713523167102	-177.052902907045	-4.47266928160925	-177.107805520362	-10.2202229642971	-155.36718968184	
2356000000	-9.35523019234731	-157.87887152176	-4.47181381449489	-177.062870952339	-4.46423660014633	-177.080769441826	-10.1940345090629	-155.312048298076	
2356500000	-9.3864066896724	-157.573317757239	-4.4816930913668	-177.092014164325	-4.47252198207294	-177.115482367394	-10.1887820826241	-155.35609370147	
2357000000	-9.41118414099796	-157.21280726605	-4.47558031183713	-177.081348291389	-4.48216481506325	-177.106899046313	-10.1990773860575	-155.304021796573	
2357500000	-9.43477776940819	-156.894319512022	-4.47911979331867	-177.147445756529	-4.48218462165616	-177.168706738486	-10.1747758709218	-155.257158179051	
2358000000	-9.45339925629429	-156.49709402707	-4.48354889019649	-177.202943157098	-4.48745473369074	-177.149852892553	-10.1895024093687	-155.263513838795	
2358500000	-9.46949772053376	-156.235369091025	-4.479992219506	-177.235327310208	-4.48275106187101	-177.180881505723	-10.1844568796619	-155.199259589498	
2359000000	-9.48849977377902	-155.928598690906	-4.47860862206917	-177.253825920404	-4.49021917552096	-177.231646166531	-10.1272467065457	-155.384849767334	
2359500000	-9.54376022202022	-155.716056705196	-4.49062136840389	-177.261157952457	-4.48660155840603	-177.245248097697	-10.1400237301168	-155.276399827318	
2360000000	-9.57153208675422	-155.266462731305	-4.48839536089987	-177.22650982934	-4.48893658765772	-177.226082568798	-10.0985858075862	-155.170896298642	
2360500000	-9.60986565011155	-155.120532534797	-4.48382598010928	-177.349524810494	-4.48079179742436	-177.270523468877	-10.0839144368161	-155.077434575042	
2361000000	-9.64326816317799	-154.620966212298	-4.48787186555252	-177.278831153277	-4.4907416791649	-177.307020764861	-10.0866758850193	-155.160575581259	
2361500000	-9.66156961196175	-154.348245151108	-4.49930224646989	-177.344754891204	-4.48457657828066	-177.358310590341	-10.0739854721742	-155.078892569463	
2362000000	-9.69986195261956	-153.971843117675	-4.4869519689099	-177.386560558905	-4.49485741123065	-177.367014823225	-10.0865063879925	-155.204790773024	
2362500000	-9.73219929352289	-153.72553986387	-4.50124729989793	-177.372655981502	-4.49559059084284	-177.42443126345	-10.0424670802475	-155.229798565462	
2363000000	-9.76571313598954	-153.427707683934	-4.48699764499493	-177.423916509414	-4.4974080089312	-177.430985385931	-10.0296844212189	-155.083456933602	
2363500000	-9.84726453164107	-153.153925063406	-4.48942549902935	-177.476567890786	-4.49682331867598	-177.387721618846	-10.0412505177461	-155.032868911223	
2364000000	-9.87282445269089	-152.960435537315	-4.49370026219162	-177.516996263786	-4.49526487352266	-177.518875737325	-10.0166022404579	-155.113490242131	
2364500000	-9.89641866098876	-152.654504551654	-4.49617621565625	-177.476744529251	-4.51056537632773	-177.52431889485	-10.0438371608277	-155.276016177468	
2365000000	-9.97644415551863	-152.459054470825	-4.49725160139572	-177.566827074353	-4.48695979062589	-177.519046519333	-9.99393184984515	-155.157509999998	
2365500000	-10.0171820969236	-152.183216909081	-4.50516876901156	-177.602637693039	-4.49213158150231	-177.499406000501	-10.0064320673603	-155.278877821289	
2366000000	-10.0432613794524	-152.069051309692	-4.50081248949611	-177.619776216273	-4.50506005608077	-177.606807993942	-9.97780294062334	-155.274075978718	
2366500000	-10.1019643486409	-151.846814347341	-4.50428994317594	-177.630387342141	-4.49375028124909	-177.583932761925	-9.97522228525554	-155.243218089952	
2367000000	-10.1574113878915	-151.471707233351	-4.50248991057405	-177.652266852066	-4.50279034920032	-177.636301097347	-9.98533655280953	-155.38276969979	
2367500000	-10.187676294431	-151.333818187738	-4.50743868487375	-177.75887095206	-4.49423890520206	-177.744103710286	-9.95989437902885	-155.618758989535	
2368000000	-10.242146883934	-151.261949135731	-4.50621087945795	-177.681802252715	-4.4966786888315	-177.66256831673	-9.94554172435922	-155.490860960687	
2368500000	-10.2837078491139	-150.980159276572	-4.51043561312472	-177.781376684439	-4.50507943607521	-177.817608830875	-9.9588411983314	-155.618632499845	
2369000000	-10.3551003844093	-150.772546009989	-4.50769623254833	-177.820135512161	-4.50975542544099	-177.796250057359	-9.94995451784268	-155.705029608823	
2369500000	-10.4147329686112	-150.60628258559	-4.525068730978	-177.853217873815	-4.51118183442079	-177.875128357875	-9.95062628055984	-155.858283840031	
2370000000	-10.4888010031781	-150.475063953824	-4.51156717068817	-177.966931274692	-4.50262106683313	-177.927160444683	-9.90879694042433	-156.023922035214	
2370500000	-10.5226718394667	-150.162461463917	-4.51454218862272	-177.91904902894	-4.51211454037691	-177.954891879285	-9.92202338454983	-155.946432808688	
2371000000	-10.556454814317	-150.349790162092	-4.50904099455061	-177.988083226565	-4.49447788354493	-177.966411939792	-9.91128180249795	-156.050086956248	
2371500000	-10.6524566749268	-150.200706440377	-4.51282745163241	-178.068510578329	-4.51028655824984	-177.920990310072	-9.91416712912465	-156.171731317433	
2372000000	-10.7269664426827	-150.128540706096	-4.51420131821467	-178.038939680859	-4.51218102066939	-178.111478468605	-9.89950234295553	-156.331099169405	
2372500000	-10.7678676406429	-149.987026610679	-4.51192140465114	-178.144948221674	-4.50506594338105	-178.119966105155	-9.87946897856634	-156.371906713322	
2373000000	-10.8560611520729	-150.143441865769	-4.52860234225735	-178.202316892727	-4.51525725683281	-178.153073480307	-9.87650215274112	-156.546331485701	
2373500000	-10.9015235373109	-149.852198248812	-4.52083041098485	-178.229038468172	-4.52112983671145	-178.177144094366	-9.87616507905163	-156.610336600561	
2374000000	-10.9269093132107	-149.912195684101	-4.51772927616066	-178.243717909284	-4.51537502004836	-178.288015485439	-9.86429139858758	-156.883307745009	
2374500000	-11.0365293337742	-149.848784178186	-4.52609089560721	-178.349477860605	-4.51809007673413	-178.341018432031	-9.85133725826064	-156.914463694495	
2375000000	-11.0987013182053	-149.806478205491	-4.5266369071136	-178.399269553082	-4.51636034811971	-178.357124277588	-9.8773290289108	-157.143052831824	
2375500000	-11.1706180079204	-149.929607981093	-4.52832431712318	-178.493809014902	-4.51529815296461	-178.427643678774	-9.85482553265421	-157.20686891841	
2376000000	-11.2280658918529	-149.887831269747	-4.51783462244007	-178.491868138563	-4.51269063541768	-178.490828080893	-9.83895853403105	-157.485750253229	
2376500000	-11.2853337324157	-149.969413898452	-4.52399407721977	-178.574612927626	-4.52028916174527	-178.518066740204	-9.84253127117429	-157.504009994095	
2377000000	-11.3763271034034	-149.959834002777	-4.52893459341765	-178.575474010976	-4.52413025839455	-178.637032934881	-9.84444595452156	-157.711938365118	
2377500000	-11.4423840758099	-150.114831732786	-4.53064048484341	-178.632426234049	-4.5261851352268	-178.651691408882	-9.8350493332337	-157.857057734898	
2378000000	-11.5051795875537	-149.92866551601	-4.52651347807199	-178.725128451072	-4.52804398362545	-178.721808934992	-9.82809312250705	-157.948656428847	
2378500000	-11.5741728723624	-150.184124041181	-4.52193822632542	-178.725917621887	-4.5216528234404	-178.677268700674	-9.81944862007073	-158.046305697169	
2379000000	-11.6232792671175	-150.332572884252	-4.52540104943793	-178.817265225864	-4.53804750744713	-178.698761577704	-9.80263244167988	-158.284213492313	
2379500000	-11.6811225695794	-150.414970683622	-4.52642179250596	-178.827379903715	-4.53475159802978	-178.858274696315	-9.80785049816794	-158.409006198351	
2380000000	-11.7505130126219	-150.782838812129	-4.53056193645121	-178.933103227756	-4.52179485759174	-178.942441384337	-9.77230985986418	-158.696081027748	
2380500000	-11.8216132859733	-150.687598881977	-4.52631141485228	-179.001154153143	-4.52116092267698	-178.965947890229	-9.79253389474029	-158.702208674836	
2381000000	-11.8960601406373	-151.0150898041	-4.53005773439689	-178.951997722527	-4.53217785935907	-178.980671907258	-9.76659724667482	-158.925715792687	
2381500000	-11.959837014853	-151.201849559948	-4.53522158213755	-179.092395695912	-4.52623552826615	-179.103087996799	-9.75821543830194	-159.228342097473	
2382000000	-12.0731501789973	-151.566762817082	-4.53768002849363	-179.228304226181	-4.52817292437049	-179.139932012957	-9.74540159801604	-159.490680254913	
2382500000	-12.0892380765689	-151.694036213737	-4.53360400965739	-179.236308908981	-4.5270154209701	-179.230723029884	-9.74567164210403	-159.729103856213	
2383000000	-12.1782972114179	-151.968239945703	-4.54424462479416	-179.276205076469	-4.54089087150026	-179.25968302351	-9.72898768288552	-159.744773287473	
2383500000	-12.2579024400938	-152.199343214769	-4.54123703422508	-179.294384814393	-4.53279391741494	-179.323802262091	-9.7363676070582	-159.993148161686	
2384000000	-12.325751829402	-152.502533145271	-4.53962981027043	-179.425106966659	-4.54538525536304	-179.405941293364	-9.74087886663418	-160.236636387415	
2384500000	-12.3795987597168	-152.949059086411	-4.53375350189602	-179.461293151944	-4.53284423970583	-179.451494406524	-9.7347027017939	-160.279672271662	
2385000000	-12.4078728786044	-153.244144318432	-4.53483625162419	-179.514192179657	-4.53486053453911	-179.515018072052	-9.72872294115997	-160.479186366544	
2385500000	-12.5231550750068	-153.759105901662	-4.52995582865612	-179.62566791258	-4.53498102257945	-179.573237549552	-9.70985680905235	-160.751483352089	
2386000000	-12.5645071736713	-153.803705548818	-4.53765987329531	-179.680223871869	-4.53922718070185	-179.647123613586	-9.71667709906935	-160.925522033723	
2386500000	-12.6159761426013	-154.232761091486	-4.53812103201411	-179.713661890249	-4.5413284772619	-179.735673751721	-9.69903443632554	-161.085766329838	
2387000000	-12.679279156455	-154.797751127976	-4.5417147689144	-179.810788158543	-4.5412148164028	-179.824831870895	-9.69039151815092	-161.359544842749	
2387500000	-12.7290248112036	-155.341502777675	-4.55123213127542	-179.907484817284	-4.53838440946652	-179.926170639172	-9.69145514599692	-161.556176719488	
2388000000	-12.8052678610089	-155.769535907957	-4.54679551483533	-179.978085674823	-4.54635190522127	-179.947087044024	-9.68146867878546	-161.781492797615	
2388500000	-12.8591681423404	-156.221527078878	-4.55172636371399	179.952167414073	-4.54317203379504	-179.93471532537	-9.68238889158216	-162.044762557309	
2389000000	-12.871285679188	-156.871533678105	-4.53829091098104	179.949603615844	-4.54268608996214	179.866236281451	-9.68486482710103	-162.101386373145	
2389500000	-12.9582985483716	-157.545003545877	-4.54907814844073	179.792217386647	-4.55005673298001	179.872251051348	-9.65048280808325	-162.397084237253	
2390000000	-13.0043858019093	-157.778555254168	-4.54418578836855	179.737753141592	-4.54895495784266	179.800398359845	-9.62955112941136	-162.478157244392	
2390500000	-13.0838831354972	-158.366115249783	-4.55863459793787	179.644668702744	-4.54912308681799	179.689718327106	-9.62108874821491	-162.855074963147	
2391000000	-13.0528852753723	-159.04274563671	-4.55220539594463	179.645521169269	-4.54957682688255	179.583311427142	-9.63667517342894	-163.016785918533	
2391500000	-13.1177097152898	-159.401150210577	-4.55619169402198	179.500165287433	-4.55168465269571	179.594258863083	-9.63295195982183	-163.300436547805	
2392000000	-13.1434856202426	-160.067921916327	-4.55837677768533	179.49188299173	-4.54899590232803	179.495926158774	-9.60408649181183	-163.438224453276	
2392500000	-13.2133504022646	-160.755697231863	-4.55939148177661	179.395814991027	-4.55516652754382	179.405773523393	-9.6058853744581	-163.598918137161	
2393000000	-13.2106718106886	-161.451224165639	-4.5630432168378	179.236919040652	-4.55839038773042	179.36397733789	-9.57226845499354	-163.709403572443	
2393500000	-13.2575182443101	-161.969490845302	-4.56146913176056	179.303590241542	-4.56546495909507	179.292547532339	-9.57931949428595	-163.900308217901	
2394000000	-13.2564969010314	-162.748954832003	-4.56407307553923	179.153282881801	-4.56068119938422	179.205719306712	-9.56157730411027	-164.287247810032	
2394500000	-13.2953951912749	-163.22924784428	-4.5729789989838	179.110365915907	-4.5727690283785	179.159666077931	-9.5900651056091	-164.290576435367	
2395000000	-13.2708230995951	-163.900572093335	-4.56602695890567	179.083014733627	-4.55700649939706	179.05975580385	-9.55882115881306	-164.462786549619	
2395500000	-13.2851258701433	-164.659070892157	-4.57334492899194	178.97359620128	-4.56094468643816	179.0568219672	-9.56016719858711	-164.736603388216	
2396000000	-13.350672509473	-165.369979789147	-4.58661367571607	178.888547795568	-4.56474402425553	178.889060726515	-9.52885799801013	-165.005629829951	
2396500000	-13.3097090800493	-166.159792557129	-4.57138330604411	178.825163877962	-4.57222311144284	178.858347702162	-9.5471889671608	-165.107897367225	
2397000000	-13.2939647845309	-166.697979358341	-4.58158702127469	178.715106122267	-4.5607825276641	178.784562297425	-9.51618390198848	-165.318202158034	
2397500000	-13.3102736635716	-167.301601039398	-4.57969883461592	178.700648382433	-4.57550174485031	178.773647856461	-9.52182833022448	-165.34424293073	
2398000000	-13.3012587974523	-168.024920502693	-4.58721251069853	178.634690230012	-4.57913761035679	178.561304325723	-9.50089378850474	-165.735687995167	
2398500000	-13.2831378934347	-168.778041921704	-4.57911527136383	178.541588726319	-4.57087266367097	178.55490081255	-9.49032052708116	-165.854614977922	
2399000000	-13.3059151060956	-169.334541448249	-4.58656804768207	178.444766737786	-4.58190046360784	178.426259189216	-9.4813314446135	-166.043526968069	
2399500000	-13.2449535895376	-170.128884040903	-4.59268036704498	178.349759110609	-4.57431628987325	178.433397497507	-9.47802734327155	-166.270655126424	
2400000000	-13.2636777567505	-170.710654498624	-4.58419525552606	178.253041453783	-4.59158530881652	178.351097035272	-9.4778434715111	-166.365818355545	
2400500000	-13.178059337948	-171.512175356841	-4.58774362247847	178.209368138289	-4.57791804051838	178.331581429417	-9.45749135684519	-166.664219650773	
2401000000	-13.1762015377174	-172.461481560623	-4.60535373151763	178.1779463078	-4.58555159385588	178.147233470351	-9.44459979365574	-166.803837072176	
2401500000	-13.1133962713745	-172.970019681318	-4.58892819871799	178.072539940977	-4.58291414032216	178.068357287697	-9.42707170165431	-166.955308507826	
2402000000	-13.0890105057573	-173.291259533944	-4.59151473963747	178.030023530005	-4.59293183721134	178.04865022846	-9.43813076155949	-167.131311535974	
2402500000	-13.0240166301841	-174.032722066301	-4.59153624080722	177.909227154574	-4.58485466487487	178.037010220247	-9.38968431414198	-167.118680048105	
2403000000	-13.0146628841364	-174.643456086113	-4.60616745406235	177.848925233583	-4.60197298212648	177.874498923067	-9.4108321712101	-167.29620381741	
2403500000	-12.9576636115964	-175.46280204974	-4.59914703567092	177.812385763018	-4.60446833110847	177.917718098196	-9.40541185928379	-167.400921329978	
2404000000	-12.8655269349593	-176.125639238396	-4.60409971822162	177.729337049529	-4.59669857459548	177.765035042682	-9.40655391395351	-167.583215113493	
2404500000	-12.8023324909103	-176.638140202227	-4.6147787753148	177.66191090392	-4.60244381295516	177.68895662991	-9.38321892296177	-167.801091084534	
2405000000	-12.7433990632538	-177.139754685171	-4.60733864751462	177.528130135468	-4.60636136125474	177.609695738082	-9.37068743352624	-167.864347661177	
2405500000	-12.7124226039869	-177.747041828786	-4.60536426295563	177.541478440332	-4.60439587312302	177.492778469626	-9.3716387088514	-167.862471793961	
2406000000	-12.6500680569018	-178.180460304256	-4.61189848545432	177.458759549614	-4.60555276702522	177.465655182279	-9.34616600387493	-168.21837847067	
2406500000	-12.5683730556103	-178.581871520257	-4.61848498204546	177.315556224085	-4.60481813190244	177.359446604834	-9.3103377722161	-168.285353769526	
2407000000	-12.4920679183987	-179.36445215697	-4.60573145658242	177.282008744902	-4.60896414525408	177.310392444026	-9.3351776863407	-168.336993499031	
2407500000	-12.42549836986	-179.696756960235	-4.61724617486321	177.215319974248	-4.6078976880855	177.24563173946	-9.31167249612703	-168.449708037024	
2408000000	-12.3741130251017	179.796674088054	-4.62381110597135	177.265434614233	-4.61515565894123	177.165689219984	-9.29766615537625	-168.466480163752	
2408500000	-12.2966351964519	179.537031878158	-4.62905519501084	177.122010801682	-4.61329902271535	177.173795111887	-9.29108018208968	-168.584690529851	
2409000000	-12.2192797505579	178.87780930087	-4.62335921446069	177.012440490346	-4.61815295855449	177.046806975146	-9.27398593640047	-168.687764718972	
2409500000	-12.159521572114	178.700463913689	-4.63304595306518	176.976111425649	-4.6236031295718	177.089496314896	-9.25116012625524	-168.700368629066	
2410000000	-12.0811295799993	178.171178464878	-4.64180102163994	176.903417330735	-4.62385698592947	176.920022901074	-9.2577470010606	-168.888341412306	
2410500000	-11.991459340589	177.778552889022	-4.63360442549846	176.849554728993	-4.62915476137069	176.852427748865	-9.24507670167876	-169.002739094284	
2411000000	-11.9102085671266	177.447207216861	-4.62769038355438	176.85890850726	-4.63835603876785	176.760222682478	-9.23630218168966	-168.948512994162	
2411500000	-11.8622818153977	177.082272086833	-4.64638583953243	176.697531991927	-4.62893151561606	176.652084162386	-9.22075362208233	-169.212983528633	
2412000000	-11.7557745609219	176.823069126391	-4.66071216982625	176.599117398301	-4.63896545928853	176.647175084485	-9.22550107592264	-169.257677256429	
2412500000	-11.6879919253726	176.460427363979	-4.66846178003548	176.586353418067	-4.64830873418943	176.548999506612	-9.23069960445381	-169.187333662209	
2413000000	-11.613578418409	176.157731315064	-4.65245356500484	176.546360783472	-4.64493561163444	176.490508068646	-9.21405333764884	-169.121261167273	
2413500000	-11.5311221214641	175.876059269555	-4.66070614354822	176.473857105702	-4.65225613398804	176.429632265937	-9.19956166611124	-169.158689488856	
2414000000	-11.4183852160657	175.612876534318	-4.66005294027776	176.346969499844	-4.6561487036601	176.348280438013	-9.18041438751021	-169.469091465954	
2414500000	-11.3526858536196	175.597861882227	-4.65799506879318	176.260472090003	-4.64638327066979	176.363178703888	-9.16784589699231	-169.387218417267	
2415000000	-11.2748712371376	175.430091236284	-4.6677968701996	176.230851808892	-4.66068483162196	176.26259636257	-9.16014486527789	-169.324384243351	
2415500000	-11.1929096767138	175.156675350181	-4.67512423191247	176.162309203119	-4.67812737802555	176.246120856478	-9.15735217249795	-169.380923965814	
2416000000	-11.1148964221669	174.935338535596	-4.67247060941804	176.126382289713	-4.65911333042903	176.131540122743	-9.14394089177318	-169.343167522456	
2416500000	-11.0547945685762	175.042362316819	-4.67870153203725	176.066790123669	-4.666769684839	176.238281890868	-9.13242638086983	-169.382083383316	
2417000000	-10.955417675415	174.612608880379	-4.67052503667516	176.090916152347	-4.67223501553059	176.077123505001	-9.09991842136409	-169.261859837065	
2417500000	-10.8888904075847	174.526415435202	-4.67671930254647	175.968324787713	-4.68633222845802	175.974209835809	-9.13211683089503	-169.387477710933	
2418000000	-10.806505757253	174.315303529283	-4.67918335717315	175.881244500048	-4.68427647151663	175.872289358433	-9.10829001349719	-169.496094452237	
2418500000	-10.7077567422145	174.346996069147	-4.68984327190127	175.895194558272	-4.69459226957222	175.868889220266	-9.09986069519011	-169.373784278687	
2419000000	-10.6350544051165	174.443031900517	-4.69175796889239	175.81454974301	-4.70043946836205	175.820580916523	-9.08035116489786	-169.357357761428	
2419500000	-10.5799826353751	174.281192579128	-4.70035492160493	175.773193741365	-4.6935972884828	175.805289860884	-9.09213147472047	-169.363179606535	
2420000000	-10.4658083339319	174.262823131643	-4.69538986141894	175.73259183096	-4.69016868571713	175.773720883851	-9.07254002122453	-169.126763570741	
2420500000	-10.4171371433116	174.449712829005	-4.7098939801944	175.715742830057	-4.70593389518523	175.690129408569	-9.05373594238304	-169.23906424414	
2421000000	-10.3353184295595	174.112512765744	-4.70230069417827	175.614491488927	-4.70763502092028	175.636841371617	-9.0457010235178	-169.324082560782	
2421500000	-10.2752105156897	174.282236378539	-4.71291789195584	175.528493005606	-4.7025643673885	175.562060481442	-9.049448947386	-169.343452973552	
2422000000	-10.1965058080673	174.283919822099	-4.70628339826896	175.52051669312	-4.7054043483611	175.444863456468	-9.00749263761045	-169.127691132154	
2422500000	-10.1135333367548	174.189585812674	-4.71185735762109	175.453399060911	-4.70881365057312	175.458981203029	-9.02886990385065	-169.097987263458	
2423000000	-10.0364575419871	174.233676760794	-4.7162925588453	175.378550776841	-4.7148882005347	175.397316501907	-9.01254030439676	-169.083385903183	
2423500000	-9.96976676841317	174.347943376085	-4.72948474640298	175.347587953731	-4.72260469053613	175.405248561547	-9.03150426130692	-168.961314842855	
2424000000	-9.91195885646828	174.500272316611	-4.73108776992437	175.321681437226	-4.71907425137526	175.40585823303	-9.01938031680323	-168.886878460254	
2424500000	-9.82795584104383	174.497095061641	-4.73347328886206	175.283239376004	-4.72702308947182	175.355515336906	-9.00347144822663	-168.728484556155	
2425000000	-9.76599648656643	174.535372664786	-4.73458410748861	175.236760086732	-4.7398083952913	175.233164564291	-9.00145652226927	-168.772687874635	
2425500000	-9.68861097318712	174.717553102632	-4.74413580872	175.207793185009	-4.73524361532382	175.171708189594	-8.98502982934715	-168.91552860018	
2426000000	-9.63279196323849	174.826420010782	-4.7465171041791	175.13805651525	-4.74297457999653	175.186203830297	-8.98409515480952	-168.652857117029	
2426500000	-9.54242276871084	174.568213779893	-4.7412479251988	175.068931906303	-4.73426314996653	175.137627180479	-8.95490111895426	-168.571715175662	
2427000000	-9.51852896951328	174.858409083432	-4.74361979515664	175.091614587621	-4.74019571862567	175.126813119146	-8.94374045938988	-168.422631885076	
2427500000	-9.42798871449291	175.115351032741	-4.73940980960112	174.989017577615	-4.74602817963254	175.051827057155	-8.95748068404479	-168.450515065594	
2428000000	-9.37037367117829	175.251658136434	-4.75765605557543	175.012728208826	-4.75141443641987	175.02700240071	-8.9541415002103	-168.298498817713	
2428500000	-9.32167369408875	175.418882563509	-4.7525803306933	175.018511746719	-4.74863484352855	174.993028112818	-8.94227988986648	-168.143073718051	
2429000000	-9.25257430474193	175.616939969728	-4.7662266270017	174.923607615965	-4.76103399528222	174.908268735583	-8.93107087272643	-168.13456636133	
2429500000	-9.21587407137338	175.702959164822	-4.76826528328086	174.928252800107	-4.77304351949942	174.910634423245	-8.9271745500193	-168.01629395888	
2430000000	-9.14399993161572	175.757141694637	-4.76916921688832	174.896555010218	-4.77220578312183	174.914628478861	-8.91760745937365	-167.953564382474	
2430500000	-9.08489520572436	175.967145430027	-4.7685456323823	174.816063677623	-4.77004785695019	174.875974595134	-8.92880692632393	-167.844832002284	
2431000000	-9.03787090150349	176.169648076373	-4.77229597470205	174.797750394227	-4.77068720179507	174.816175425091	-8.8695953586933	-167.711479774875	
2431500000	-8.96360176163006	176.363418844971	-4.78020675803709	174.745562920213	-4.78083517277572	174.72031164117	-8.90366146161296	-167.69814175974	
2432000000	-8.92286117936966	176.568257400159	-4.79175622166168	174.706400857519	-4.78571228385235	174.754412596242	-8.91580178680645	-167.534042212515	
2432500000	-8.88702327625997	176.820114351091	-4.79485593055356	174.707765995767	-4.78355942339262	174.752410922718	-8.88587418925836	-167.275057438774	
2433000000	-8.82026389453747	176.969979854197	-4.80128039252158	174.660151855782	-4.79157469742301	174.689950883458	-8.8749480461243	-167.280223942662	
2433500000	-8.79375052682211	177.41517835161	-4.80159341011402	174.726987437685	-4.79371776219855	174.646214543027	-8.88974596644598	-167.128657127238	
2434000000	-8.71041090233585	177.550712793118	-4.80115074439528	174.645534158475	-4.79686948744361	174.647029077006	-8.88655849867473	-166.930272697512	
2434500000	-8.66381370083544	177.59483734172	-4.79744747798108	174.556633777576	-4.79889945242769	174.646002551569	-8.87636465260922	-166.814382369278	
2435000000	-8.61659028959323	177.926497734981	-4.81011333503945	174.615621987041	-4.78718698803473	174.619093163131	-8.85319075465886	-166.856165619231	
2435500000	-8.56321224351539	178.181893136053	-4.81021995720328	174.54592931723	-4.79849585068841	174.583856563607	-8.85300933945496	-166.499552638485	
2436000000	-8.52414670312564	178.320618766308	-4.80778355852397	174.488196102214	-4.80805924166539	174.515021215991	-8.85525292103223	-166.522015201954	
2436500000	-8.49570998144767	178.78029495026	-4.81886864291196	174.540935334319	-4.80754183084698	174.524343648393	-8.87556325071934	-166.328879831132	
2437000000	-8.4734927029322	179.021399827666	-4.8229239125449	174.554252963795	-4.81846362546589	174.583406813323	-8.84502732099978	-166.047016248152	
2437500000	-8.43860133439823	179.282456369996	-4.82680054360416	174.478272036739	-4.8136487267859	174.525100570255	-8.84442600044522	-166.102326935714	
2438000000	-8.38986529199513	179.449743839694	-4.82794161097361	174.470843031867	-4.81932287231356	174.418720427866	-8.84559664945904	-165.897581320341	
2438500000	-8.36998352132907	179.747519794427	-4.82957137284693	174.459315593731	-4.82793716993251	174.479544399823	-8.82566450948036	-165.77085244068	
2439000000	-8.2942926475741	179.978843577911	-4.8241785366743	174.337761798424	-4.82671954602121	174.375483060618	-8.82023319736399	-165.692001196938	
2439500000	-8.27326281142233	-179.747978376281	-4.82601202845099	174.393768716956	-4.83378381566796	174.30190920236	-8.84319694886234	-165.655457705886	
2440000000	-8.26581882252781	-179.42072693655	-4.8353673147351	174.382554112927	-4.82756987083123	174.420600907067	-8.82963851181816	-165.436615700269	
2440500000	-8.21545002372271	-179.108080060723	-4.84537890585285	174.331480948809	-4.8349715008968	174.391924896544	-8.81724312908149	-165.269091360879	
2441000000	-8.16826453868393	-178.90607968419	-4.84978650766177	174.367999052487	-4.84024927234134	174.355192360323	-8.82718745448936	-165.031296102028	
2441500000	-8.15962786180088	-178.443942462626	-4.85202732118339	174.414873806112	-4.84382191228986	174.302740994273	-8.81070774299692	-165.088377909287	
2442000000	-8.14108452329669	-178.300606151662	-4.84956395719069	174.333522215647	-4.84275562588943	174.337058828996	-8.8044894125913	-164.828544227861	
2442500000	-8.11115914381519	-177.968453463078	-4.85576581941007	174.302098106888	-4.85576645293158	174.337198946233	-8.82780437162403	-164.8611267908	
2443000000	-8.08195478405244	-177.653894180461	-4.85975217637907	174.313024398184	-4.84597280069341	174.325076860367	-8.81456036574363	-164.620897155413	
2443500000	-8.04963374205346	-177.388465520436	-4.86873874286565	174.259570547863	-4.85630123536592	174.290392574908	-8.83226261209617	-164.470580829017	
2444000000	-8.01758666709977	-177.029538222263	-4.86433009835017	174.292038803869	-4.85535224144853	174.219835973091	-8.78899135202346	-164.302650870951	
2444500000	-8.00408864750183	-176.676957699448	-4.87203413815538	174.306505139899	-4.85984950785766	174.307288177051	-8.80271001430659	-164.182212800333	
2445000000	-7.98280357637441	-176.345639556723	-4.86191380202184	174.213289059233	-4.86827745707148	174.255513587069	-8.79516108432059	-164.131137484243	
2445500000	-7.96372830716726	-176.095782438102	-4.86188616171672	174.242143352411	-4.86268450508191	174.271468183544	-8.7757228269025	-163.908190304881	
2446000000	-7.9572614250807	-175.795937510883	-4.86290701528582	174.298545015164	-4.86418443523741	174.280415521289	-8.80144713084131	-163.762911149523	
2446500000	-7.96299773901315	-175.406216455183	-4.88037236653965	174.240474443412	-4.87540253399334	174.279145281114	-8.81875866280786	-163.860180383379	
2447000000	-7.93147723804017	-175.223669278934	-4.88852759785868	174.212761527577	-4.88379484371111	174.238005551117	-8.79879383878021	-163.451397065615	
2447500000	-7.9227801750706	-174.83968958548	-4.88271787575556	174.254803381627	-4.88648096640201	174.175439181807	-8.80820736469263	-163.370631449612	
2448000000	-7.90933445751844	-174.433873541094	-4.87964747586091	174.264917449704	-4.88506370070385	174.311267761871	-8.77778548960998	-163.323337522121	
2448500000	-7.89859179249024	-174.097692055274	-4.89611573798484	174.248144157066	-4.8885250997612	174.240399487938	-8.78591839234387	-163.232213153967	
2449000000	-7.8850546453169	-173.783108865943	-4.89047639722985	174.244398306424	-4.89387030938962	174.213948771634	-8.79186566627831	-163.010290183024	
2449500000	-7.87621740395481	-173.531473008334	-4.89385757086647	174.16140948209	-4.8874810957794	174.148532824146	-8.78167753545936	-162.98879346267	
2450000000	-7.84701323917697	-173.157425785888	-4.90004891100013	174.16819899653	-4.89935327970016	174.218842300027	-8.78509979380887	-162.963126875785	
2450500000	-7.84147132817975	-172.897224149011	-4.90636855822891	174.222529946937	-4.89185236899102	174.173985471642	-8.77135521972317	-162.682136503799	
2451000000	-7.86700386215471	-172.570238327771	-4.90394991541927	174.224045784991	-4.8967060311452	174.181973273722	-8.7898209332267	-162.594158748282	
2451500000	-7.85045896609375	-172.259256941315	-4.90553952919093	174.16449243677	-4.90056947309682	174.208092427469	-8.7882725681851	-162.537570802098	
2452000000	-7.83361671402768	-171.686787024752	-4.90269464726484	174.207190275058	-4.89157893003986	174.20070835358	-8.78359648699549	-162.40976521981	
2452500000	-7.83572440834498	-171.637928792982	-4.90482445204807	174.230170531287	-4.90240395059657	174.189216172233	-8.76943378197565	-162.381098478227	
2453000000	-7.84862119226311	-171.309138888182	-4.90895907135972	174.130698672077	-4.9167141341921	174.180781401765	-8.79032116123248	-162.311977805013	
2453500000	-7.83641316094843	-170.950421959657	-4.91496635008854	174.121963701136	-4.91630105150302	174.218064593167	-8.79076431009436	-162.074082030365	
2454000000	-7.84621975049438	-170.571928344989	-4.90893869321923	174.206320797527	-4.91692496377438	174.177498871836	-8.79810043074769	-162.21847172311	
2454500000	-7.82338824654591	-170.239319835701	-4.91088776415215	174.183610110805	-4.90887345381989	174.167170355781	-8.78247166605879	-161.959676720758	
2455000000	-7.84481528275534	-169.967809873593	-4.92401134236195	174.145412048069	-4.9179714326077	174.163653533884	-8.81072383850116	-161.906920198741	
2455500000	-7.86559519350086	-169.649778699922	-4.92947927005832	174.17715092025	-4.91871171645643	174.196764242199	-8.76513543558239	-161.859742023262	
2456000000	-7.85438700347934	-169.32303771459	-4.92904308952881	174.208936476942	-4.91470561751549	174.172451885951	-8.7657377516146	-161.754132238248	
2456500000	-7.85052829963647	-168.969394884015	-4.92011095353908	174.102483997012	-4.92448683587667	174.175435550719	-8.77301207142796	-161.699347155508	
2457000000	-7.86727426954395	-168.784290953154	-4.93647724601807	174.156686494072	-4.92856086841914	174.149852093506	-8.8040553714832	-161.713799572686	
2457500000	-7.90417339146621	-168.482411155377	-4.93991501471029	174.163639621782	-4.92596131366707	174.133349519202	-8.79732477118504	-161.550012427196	
2458000000	-7.91250118138008	-168.088968664281	-4.92951951382198	174.150310271975	-4.94260980935158	174.137633338522	-8.79896307480969	-161.70847615596	
2458500000	-7.91295802983857	-167.784980916469	-4.94343018068716	174.168657375792	-4.94020704792375	174.16182448164	-8.79584863687184	-161.543333907191	
2459000000	-7.90505639949847	-167.452065404175	-4.94536654884031	174.196666737476	-4.92613175037661	174.129908762479	-8.77631911753102	-161.551425965241	
2459500000	-7.93373260859498	-167.101891890518	-4.95421689884748	174.079530459756	-4.93816158930961	174.07574542614	-8.78741826937851	-161.544778410619	
2460000000	-7.92870019562051	-166.983933418225	-4.94146189530921	174.063039113238	-4.94863067374655	174.064595418521	-8.80198550896345	-161.49532295794	
2460500000	-7.97662759722566	-166.44739514965	-4.95486704808231	174.171442623606	-4.94310479412955	174.149205884127	-8.78896610025244	-161.136644328004	
2461000000	-7.99030739634429	-166.35699034538	-4.96071328120469	174.138115459762	-4.94435539517912	174.097955915826	-8.80418011786132	-161.268152709387	
2461500000	-8.00863166195723	-165.985958846226	-4.9620867932104	174.087429638308	-4.95528379832349	174.121076767479	-8.78690293169011	-161.436501111497	
2462000000	-8.00717562898465	-165.664497261449	-4.95242318927158	174.138348512851	-4.9401963137165	174.074590649244	-8.77550810963395	-161.466149818093	
2462500000	-8.03069393548752	-165.455965991834	-4.95864763808865	174.079794275843	-4.94748562489163	174.059285212302	-8.80640859972413	-161.37493780237	
2463000000	-8.05283613406661	-165.191946860463	-4.95709475084268	174.093231406435	-4.96256786028076	174.075423845298	-8.81785920690907	-161.48159778528	
2463500000	-8.06463025543195	-164.902547948656	-4.95901607738198	174.047113277858	-4.9490062437817	173.961287064647	-8.78867087727766	-161.480345269996	
2464000000	-8.09102634906155	-164.678032988421	-4.95758557561336	174.064091714668	-4.9531752770482	174.064361275954	-8.8120744130747	-161.384952427649	
2464500000	-8.10303069229166	-164.381227010589	-4.97123360098279	174.034529505583	-4.96489543496715	174.063743894549	-8.79102488761997	-161.383306734648	
2465000000	-8.14233013227311	-164.149244091214	-4.97220853821941	174.014106310653	-4.96869808108885	173.987473608752	-8.78646509173078	-161.380491108513	
2465500000	-8.18711096809476	-163.816844920816	-4.96474379510322	173.963708009567	-4.97065401601647	174.048249557575	-8.82756576517304	-161.552767353069	
2466000000	-8.20133230585368	-163.576449462653	-4.95748568919002	174.044008617629	-4.95842098517338	173.967741911263	-8.78838595507636	-161.407837697227	
2466500000	-8.24305831882914	-163.34771520338	-4.97775100440411	173.954732049102	-4.97190830764433	173.952140648573	-8.80656596476961	-161.375177269889	
2467000000	-8.24302394923501	-163.241757058347	-4.96995413477316	174.001034748253	-4.96802929898796	173.955988304226	-8.80695565386584	-161.403140365446	
2467500000	-8.29230952124274	-162.963511875908	-4.97090812991494	173.931887787622	-4.97382091043953	173.908934193263	-8.79492368005627	-161.606399779569	
2468000000	-8.32344051977401	-162.638501958931	-4.97635155290142	173.906018883501	-4.96511797970765	173.96672545154	-8.81203412183646	-161.693043355358	
2468500000	-8.34843565095995	-162.645643545437	-4.97477695552838	173.910012873966	-4.97053355884621	173.873890848664	-8.78138543312021	-161.576770664778	
2469000000	-8.3679848675884	-162.341776575118	-4.96670547277501	173.92513613867	-4.97657842219966	173.913243878568	-8.80702211881333	-161.638054505674	
2469500000	-8.41447412557993	-162.162174685734	-4.97977518304682	173.852499840778	-4.96821113579778	173.874298204193	-8.80839734888297	-161.869070101451	
2470000000	-8.45739940055839	-161.932921973047	-4.97369341429212	173.889792093477	-4.97675831450936	173.820795985159	-8.81122587514225	-161.810773624439	
2470500000	-8.46485148774895	-161.784423807014	-4.96680567253069	173.858194323738	-4.9734291129612	173.767088977506	-8.79621205769507	-162.027728763426	
2471000000	-8.52813561634963	-161.541416520379	-4.97787653122772	173.790803510737	-4.98223226092717	173.792535604909	-8.78882694359218	-162.01656434621	
2471500000	-8.54695214838134	-161.310456669344	-4.98074438737786	173.813034358534	-4.97729358322548	173.80822387117	-8.79843257770416	-162.193291856872	
2472000000	-8.58946044320514	-161.299762080354	-4.98675132666632	173.699956199982	-4.97817183985836	173.715473213213	-8.7787110657307	-162.192732531965	
2472500000	-8.63591145714235	-161.12904040632	-4.98042342101061	173.724646396089	-4.97727754419061	173.738371224646	-8.79841613572411	-162.419686290891	
2473000000	-8.66535389556232	-160.966929530234	-4.98483917888464	173.701338609694	-4.98320640806508	173.629597584702	-8.81272645021831	-162.459318257577	
2473500000	-8.71463150798587	-160.77288686954	-4.9972715424015	173.720463220653	-4.97964268877847	173.668932667798	-8.79808076204725	-162.411611622559	
2474000000	-8.73943898682814	-160.651421116014	-4.98720873651374	173.681790460435	-4.98006454453037	173.641273597027	-8.79921175163377	-162.676126522822	
2474500000	-8.78984893970486	-160.342846506363	-4.98587779096272	173.662899225284	-4.98628120759583	173.65985214945	-8.79863205549775	-162.835375580283	
2475000000	-8.83571078475739	-160.455459315986	-4.98976117816886	173.613191938151	-4.98316783493126	173.644924073195	-8.79185791197001	-162.78243269873	
2475500000	-8.89392718587636	-160.131402448771	-4.99126888928544	173.60521728632	-4.98628011077827	173.573682297503	-8.80283886687919	-162.843646521265	
2476000000	-8.91094367661093	-160.220799967463	-4.98564678902565	173.528800127085	-4.9854386969959	173.523381003721	-8.79250687590741	-163.180237173244	
2476500000	-8.97001138447193	-160.159910950231	-4.98955307728681	173.526808124278	-4.99218407883102	173.443137456848	-8.78082067562978	-163.152890578644	
2477000000	-9.01703341483786	-159.994292208793	-4.99222560088144	173.446994644323	-4.98474769966846	173.427082406561	-8.78471496592103	-163.282967613755	
2477500000	-9.05337177180908	-159.987155006046	-4.99914202472386	173.431080194901	-4.99551645732433	173.449798883853	-8.78804334312942	-163.473777970369	
2478000000	-9.09319232236192	-160.040758004197	-5.00166998743966	173.350987935631	-4.99225189773531	173.373715431989	-8.79255877551735	-163.628584752069	
2478500000	-9.13255180438086	-159.972606897758	-5.00404983784441	173.361382168657	-4.98602412409302	173.324250045363	-8.77957935424566	-163.770020193923	
2479000000	-9.19304834787991	-159.713399376436	-4.996665610055	173.361348491881	-4.99108032656966	173.29575885734	-8.76280725432646	-163.858284983616	
2479500000	-9.25221065144584	-159.63770302809	-4.99157699817362	173.334295392443	-4.99953617940476	173.300077556142	-8.76028583834546	-164.049107175923	
2480000000	-9.27409093197303	-159.802791723924	-4.99827454038581	173.30966546025	-4.99087597939022	173.249665326876	-8.75540886106297	-164.283820502682	
2480500000	-9.34475559032865	-159.858689545065	-5.00672017417406	173.228693951546	-4.99525833153055	173.17734189649	-8.76425054797419	-164.292127036845	
2481000000	-9.37159280439119	-159.875726984814	-4.99311196678191	173.155749707117	-4.97699089367116	173.152172194516	-8.72177783739082	-164.524380744401	
2481500000	-9.42060197170001	-159.90556963034	-4.99383038915421	173.133256985102	-4.99814054967287	173.071935752604	-8.74130647689835	-164.672727808859	
2482000000	-9.48441388638861	-159.853112241488	-5.0195470934957	173.176316835708	-4.98437804348759	173.059845629182	-8.75746456694358	-164.717891454604	
2482500000	-9.52294473206334	-159.911536340903	-4.99221999939285	173.082622088344	-4.98060690989161	173.055010505067	-8.71967445575017	-164.842674124355	
2483000000	-9.58223155175573	-159.935050592289	-4.98947461956342	173.007975520481	-4.98885678172525	173.014658211079	-8.71175478107835	-165.199629590377	
2483500000	-9.61731944058863	-160.079332263222	-4.99642089965299	172.929975288077	-4.99208768421998	172.925025911834	-8.72023492055243	-165.495257568623	
2484000000	-9.65119442140017	-159.97373140577	-4.97970983502107	172.971444579063	-5.00306984647169	172.90707183243	-8.70850895956124	-165.450903243866	
2484500000	-9.73035168119238	-160.042915782801	-5.00268345441202	172.961095095394	-4.99073337542873	172.901002306561	-8.7061412140508	-165.615396757325	
2485000000	-9.76954736809121	-160.234688321707	-4.99417444323736	172.831636204499	-4.9937364047111	172.892557028434	-8.68672599257063	-165.776785154308	
2485500000	-9.8272802576278	-160.533761572148	-4.99817218985105	172.790692998046	-4.99410344596564	172.725377714956	-8.69609929322431	-165.923118001982	
2486000000	-9.84956783594305	-160.534347996987	-4.98929666535249	172.784733995981	-4.99161005585809	172.670832533043	-8.69507845746953	-166.198120339407	
2486500000	-9.9405685410996	-160.634446082327	-5.00496852474344	172.721113935853	-4.99799554706155	172.641877781372	-8.68427824358084	-166.386190677583	
2487000000	-9.96604627669771	-160.715373147962	-4.99497246596536	172.686356247639	-4.99656385352603	172.669999522638	-8.64781565525483	-166.450964236816	
2487500000	-10.0204139301367	-160.814912832679	-5.00938830084601	172.608574305287	-4.99257007839883	172.654595299882	-8.658088639028	-166.680655758799	
2488000000	-10.063722508277	-161.40065423106	-4.99815545188061	172.603669287492	-4.99020048102584	172.531316995818	-8.63190040543758	-166.840790767485	
2488500000	-10.1034068029854	-161.471293746964	-5.00064578530475	172.528156719086	-4.99903222969919	172.589665282696	-8.64819359779644	-166.972258131034	
2489000000	-10.1647226344534	-161.719070838276	-5.01440253605521	172.418230122746	-4.98546742109803	172.398208696131	-8.62481104895682	-167.177171689736	
2489500000	-10.1845588426427	-161.830592968675	-4.98955331739058	172.482661023089	-4.99324788164423	172.375092652353	-8.59064255495072	-167.35657641789	
2490000000	-10.2216483016105	-162.378224343701	-4.99600559690746	172.283422774112	-4.98145550178942	172.336001411248	-8.60031222264231	-167.554730248069	
2490500000	-10.2478210877389	-162.26381685696	-4.98756460115971	172.34597324588	-4.99368347067963	172.310419544006	-8.56177051461367	-167.714333599951	
2491000000	-10.3138032122167	-162.688843951124	-4.9969692446412	172.241415295585	-5.0064162290492	172.191737489389	-8.56898494337334	-167.849727735962	
2491500000	-10.3611977423863	-162.808044101525	-4.99374518526609	172.237444675427	-4.9967124625988	172.185650976207	-8.55982188596719	-168.067519152978	
2492000000	-10.4102958701585	-163.296280523762	-5.01048071302994	172.202232754484	-4.99043464651807	172.180112660048	-8.56249953425309	-168.189420558454	
2492500000	-10.4268252329859	-163.599909840168	-4.99664840794885	172.118466962639	-4.99760699971782	172.026159150329	-8.55387589702749	-168.404492706542	
2493000000	-10.4915103331122	-163.733501548019	-5.00386647430483	172.000603032827	-4.98246131442712	171.952400673508	-8.5434333700471	-168.754710518222	
2493500000	-10.5029619560682	-164.14630671262	-4.98736131642291	171.956531885251	-4.99219122620625	171.956337717062	-8.54327539604334	-168.671482023423	
2494000000	-10.5337594232482	-164.40163258315	-5.00276906628237	171.881626807484	-5.00307041532062	171.832410415405	-8.51052518624167	-169.041524020035	
2494500000	-10.5975865707451	-164.893702542116	-4.99923723380204	171.837157123349	-4.99838946859662	171.831048337132	-8.50578927181387	-169.089327705499	
2495000000	-10.6278431640129	-165.208177655824	-5.00906459492023	171.744518000319	-5.0037366499429	171.785084379059	-8.49499477351444	-169.201704891818	
2495500000	-10.6613308904603	-165.5165533227	-4.99781131605156	171.744446408878	-4.98960591764643	171.685585665081	-8.47848782240572	-169.548763490341	
2496000000	-10.6735597170708	-165.99190643851	-5.0041485815925	171.583269277557	-4.99603396243386	171.716998684732	-8.4626527977946	-169.765894676317	
2496500000	-10.7374759126948	-166.319136179918	-4.99808652683896	171.631143885117	-5.00641741120676	171.540279136771	-8.4653750634963	-169.736206174948	
2497000000	-10.7405523990614	-166.659723731244	-5.0054147567548	171.618878354936	-5.00873116362196	171.543132495338	-8.44500482298023	-169.911874508202	
2497500000	-10.7612569679066	-167.265499798245	-5.00741133466085	171.514596799477	-4.98987712543924	171.414686541419	-8.43665544431481	-170.192569119504	
2498000000	-10.772289768786	-167.783270184903	-4.99213004759563	171.376164970258	-4.99797224902436	171.410027781271	-8.40370355246255	-170.204443584538	
2498500000	-10.8024405461992	-168.092355903972	-4.9956591787617	171.377434090087	-4.99743547968643	171.280603262921	-8.39145603134955	-170.53426750777	
2499000000	-10.8361392454783	-168.417363135421	-5.00632072946716	171.306912472499	-4.99423189504007	171.253910044882	-8.39003761573449	-170.565734975456	
2499500000	-10.8426134203986	-168.876843216587	-4.99479892193095	171.190320238511	-5.00214278458174	171.246990851114	-8.36178127323742	-170.83551204056	
2500000000	-10.8586072789672	-169.439604334943	-5.00079595476984	171.140445064338	-5.01336392442791	171.10197901363	-8.37052115195499	-170.974416169236	
2500500000	-10.8440805530201	-169.843659778673	-5.00104824161669	171.135844666861	-4.98220763573916	171.046521549006	-8.3397790165582	-170.994718653669	
2501000000	-10.8569635999962	-170.306516003672	-5.02201691260011	170.97064378288	-4.99402079412756	170.991934635511	-8.33815915324013	-171.341283876073	
2501500000	-10.8983349971595	-170.918032266946	-4.97537489007287	170.925692674728	-5.00607470454819	170.942115337266	-8.31654250137762	-171.257241090992	
2502000000	-10.8786608293296	-171.376812976439	-4.98920151634799	170.894781013069	-5.00423308581053	170.815618765524	-8.30175292759746	-171.475420396585	
2502500000	-10.8983714855322	-171.624991726761	-5.02063407846627	170.792562400628	-4.99074400059689	170.765879426627	-8.30463665515489	-171.864175002524	
2503000000	-10.9123149009102	-172.042397944525	-5.00524044322619	170.80568088563	-5.00451275775181	170.74857957533	-8.25857607536503	-171.881817501056	
2503500000	-10.8876379764983	-172.792824452516	-5.00060764417249	170.649812315651	-5.01391003287877	170.641503564659	-8.27008717703257	-172.057697416223	
2504000000	-10.8678876756384	-173.267204605362	-4.99579459361287	170.621959672101	-5.01218903129048	170.645945958065	-8.25864284737355	-172.074458774603	
2504500000	-10.892110213777	-173.439735391936	-5.01364102259597	170.537202044477	-5.00975038495424	170.539892736035	-8.2235337904915	-172.128705442348	
2505000000	-10.8622636273863	-174.201326761356	-5.00447889429992	170.477430174723	-5.00106428134276	170.493736824263	-8.22149244451579	-172.379043921164	
2505500000	-10.8276359055778	-174.641414701515	-5.01554633035586	170.368473958039	-5.00601952550591	170.469221815868	-8.20977935979178	-172.482568850326	
2506000000	-10.8801834319996	-175.033129685955	-5.01346091126112	170.293833905121	-5.01371461465409	170.321190006579	-8.21010939913802	-172.527343408754	
2506500000	-10.8075909981515	-175.620907685078	-5.01657652937504	170.233059871248	-5.0087970007699	170.204228259248	-8.17324074652805	-172.937075519549	
2507000000	-10.7961532677147	-175.872685540833	-5.00610459668475	170.214070842225	-5.00319781414076	170.17169088084	-8.13537260313849	-172.654574911854	
2507500000	-10.7737208571781	-176.461026375434	-5.0154435327845	170.053957867068	-5.00228290002872	170.146561367003	-8.13469042511149	-172.898623861586	
2508000000	-10.7617003527386	-176.78774263853	-5.01496311082136	170.104394734749	-5.01557655678046	170.06405690406	-8.13527976939364	-173.038798140349	
2508500000	-10.7523727840881	-177.221462202536	-5.01630188089688	169.952369653349	-5.01816279208632	170.018339591731	-8.11393709286722	-173.153712540782	
2509000000	-10.7243748909432	-177.797263636614	-5.01728161773908	169.877918874535	-5.00299346546201	169.828737079452	-8.08344419192853	-173.184632167867	
2509500000	-10.6810373928803	-178.48430350047	-5.02258905898255	169.8531306335	-4.99389795919708	169.901026873058	-8.0817090971511	-173.252392441232	
2510000000	-10.6763845469419	-178.563377589461	-5.03705911528376	169.743230798306	-5.00818645618503	169.696199666548	-8.08173472710663	-173.585255791675	
2510500000	-10.6026335684159	-179.311648498777	-5.01168501435412	169.667501985354	-5.03395747573482	169.665021654009	-8.05258401092932	-173.482308118095	
2511000000	-10.607726484293	-179.660224923297	-5.01963225862785	169.633274633921	-5.03324150438897	169.671876094009	-8.04553068134034	-173.545425851283	
2511500000	-10.5370189326907	-179.812345320474	-5.01312497268386	169.576173394948	-5.00247376803826	169.486242328756	-8.02634276770307	-173.426464442945	
2512000000	-10.5376922006755	179.651857855654	-5.0333550203927	169.490993407622	-5.01641761313746	169.467551265084	-8.01131648149631	-173.661192989985	
2512500000	-10.4925072626168	179.150939164717	-5.03186110403391	169.511522531305	-5.01550300225225	169.379590647288	-8.01397563039164	-173.73145597843	
2513000000	-10.4085850379409	178.63347670075	-5.03099539792121	169.389784419594	-5.03229620419482	169.367505588014	-7.99226776344837	-173.750870907177	
2513500000	-10.37933464056	178.441280466645	-5.03032220555582	169.270375167621	-5.03238213009625	169.250335918782	-7.97422554667068	-173.808595645128	
2514000000	-10.3268945733286	177.884301455546	-5.03482849557609	169.203393763387	-5.01843810591814	169.227628699496	-7.95316790130471	-173.856083984941	
2514500000	-10.293384950825	177.811829555319	-5.02775727354886	169.175659243447	-5.02172198727221	169.200586292943	-7.96900125410368	-173.987756071886	
2515000000	-10.2787659176221	177.376432063749	-5.04169786581282	169.012471416803	-5.04588555411416	169.050115121493	-7.95946502668584	-174.071328669153	
2515500000	-10.2201774733992	176.989591875444	-5.04692292943503	168.997621410361	-5.02925083864521	168.96698092956	-7.95074404006567	-173.909925904365	
2516000000	-10.15732936926	176.675323018592	-5.03873052150551	169.047120201576	-5.03801130721932	168.971954664393	-7.92486936153203	-173.969913242134	
2516500000	-10.1267710125051	176.325972340669	-5.04403269266099	168.956434375574	-5.04209793325355	168.952561537669	-7.9129739181235	-174.100776602144	
2517000000	-10.055271949921	176.023748029787	-5.05251126866326	168.738366129043	-5.04714724946073	168.770524066051	-7.89767568898259	-174.149253433456	
2517500000	-10.0165748725767	175.834800853483	-5.04706370475256	168.749439700069	-5.05838614241224	168.721864497129	-7.86853317973948	-174.264518580631	
2518000000	-9.95660148688079	175.570872724641	-5.05132431276256	168.641762842354	-5.05516414549657	168.654099250751	-7.86866359938949	-174.231774254409	
2518500000	-9.92544606885511	175.078661409882	-5.05357610411934	168.542027921559	-5.05464671106291	168.550472724222	-7.84669661385647	-174.302251300917	
2519000000	-9.84807854925856	174.903993388779	-5.0514192929222	168.529254622614	-5.05273038510032	168.549293834284	-7.83769234771528	-174.163819308434	
2519500000	-9.81553441103607	174.741758896495	-5.06799628397394	168.480284557364	-5.04554264268993	168.401854105828	-7.83595225930608	-174.193036212827	
2520000000	-9.75203671453384	174.627852375575	-5.071362993302	168.477104198696	-5.06950617438432	168.428975949062	-7.85421935606957	-174.305888111778	
2520500000	-9.70607386099852	174.429386565455	-5.06154752583209	168.444100103015	-5.05783350820152	168.334324336545	-7.82554025511227	-174.218856594725	
2521000000	-9.64576185103114	174.070609006594	-5.05802608877866	168.350043875716	-5.06247740711831	168.257353964107	-7.79362668690674	-174.268486174476	
2521500000	-9.56644001708864	173.961086218877	-5.0638411776875	168.223112079509	-5.0623619794726	168.131254388071	-7.81523174764398	-174.121438530385	
2522000000	-9.50578784696472	173.483715505082	-5.07579956942747	168.075238846443	-5.08126002830523	168.149837000414	-7.81503231809778	-174.2859699355	
2522500000	-9.51888524849257	173.542663973811	-5.07964879268839	168.072968222705	-5.07931263489578	168.121745588876	-7.82308514606807	-174.154242410337	
2523000000	-9.42364762011971	173.455050847749	-5.07818249665932	168.084252151905	-5.07768381665227	168.099082834527	-7.78886618724588	-174.080078285024	
2523500000	-9.38372548274866	173.076873318015	-5.07925319626646	167.934690279641	-5.08156732539758	167.928700772427	-7.77773823448846	-174.113560900683	
2524000000	-9.32180698216464	173.051783485915	-5.08603037640193	167.838534732775	-5.07606887799328	167.895019539765	-7.76623058638225	-174.335430047157	
2524500000	-9.24810759499247	172.915412561176	-5.08237184765302	167.909982003382	-5.0670393985975	167.816228228659	-7.73808896666066	-173.911415181655	
2525000000	-9.22063366762675	173.037162887987	-5.07789385327247	167.882605499278	-5.07547009102225	167.83372131664	-7.75282230623914	-173.895032685867	
2525500000	-9.17566362635049	172.738226652983	-5.08608505199469	167.726227676922	-5.08552196337957	167.799657141443	-7.72994785854293	-173.933090376472	
2526000000	-9.13574423920346	172.564802419646	-5.10249591694715	167.697433125594	-5.0946075238027	167.696781825624	-7.72457157285873	-173.903878385303	
2526500000	-9.04786866743958	172.557043393034	-5.09299720754841	167.593316181853	-5.08916393927991	167.596184241377	-7.70962243554215	-173.833407783108	
2527000000	-9.00674140104519	172.764693048012	-5.09115520763643	167.625670902411	-5.08983042967931	167.559235917885	-7.69889874004298	-173.609485355766	
2527500000	-8.94147110379837	172.618218728052	-5.0940682401133	167.546875386991	-5.08733584088052	167.561203225223	-7.72689925341271	-173.57419365437	
2528000000	-8.86425790804016	172.346718403815	-5.11145970313921	167.493506113899	-5.09429928441194	167.527457813462	-7.71526436279018	-173.561513192795	
2528500000	-8.80152340881049	172.254443087861	-5.09854522253031	167.395671900848	-5.09794382579435	167.392304218144	-7.70861517821911	-173.638771608578	
2529000000	-8.76866968642313	172.481858067071	-5.10382691293565	167.333962685509	-5.10471517090492	167.37328721615	-7.68809778564361	-173.508980961613	
2529500000	-8.73499212947781	172.25460741026	-5.1147073734015	167.271818526355	-5.10526311747651	167.344021448579	-7.71177966458191	-173.548908517637	
2530000000	-8.64740886753697	172.403806114006	-5.12031349572616	167.27155438887	-5.10626341119428	167.21763466377	-7.69931888913878	-173.574723621487	
2530500000	-8.61169378229019	172.351464805996	-5.116001129427	167.193507784627	-5.12067142485996	167.191698044678	-7.69702409574666	-173.440479436513	
2531000000	-8.57562008947127	172.471042785086	-5.11589991447482	167.252383565836	-5.1137524895578	167.146040669553	-7.656080081718	-173.306540525714	
2531500000	-8.5168308142387	172.439036578478	-5.12436704460107	167.139383535363	-5.119721062518	167.171998196943	-7.70404768944949	-173.296161194993	
2532000000	-8.48823394195055	172.488842679769	-5.13593793892115	167.147689184893	-5.11966181127048	167.059798149865	-7.68236602239908	-173.17154620221	
2532500000	-8.40924695518528	172.371788608646	-5.12242981898405	167.058832633753	-5.13175216553557	167.082490740978	-7.66969725663239	-173.004410215429	
2533000000	-8.40309371424303	172.546921382355	-5.14041164874532	167.027072023178	-5.1272167727581	167.04487928414	-7.68495031982935	-172.955143287113	
2533500000	-8.35043794192845	172.415978701805	-5.1463315154161	166.960236933293	-5.12666491454949	166.979175446392	-7.69568842356663	-172.719747565941	
2534000000	-8.25924919117819	172.676678464969	-5.13020481264367	166.960841970302	-5.13772962541455	166.87633654973	-7.67971991228791	-172.867043861013	
2534500000	-8.23986757419508	172.60822898085	-5.15734050719743	166.880664046066	-5.13956561943736	166.80849904289	-7.67542315292292	-172.735391390358	
2535000000	-8.17668466731068	172.785427307925	-5.14099548612168	166.88689257167	-5.13524710549153	166.833719674071	-7.6720911106891	-172.499771829437	
2535500000	-8.16920823478271	172.960755105127	-5.13295829058687	166.855792038446	-5.14599571730633	166.83091039601	-7.68325150807368	-172.286162390862	
2536000000	-8.11916982259848	172.896458906435	-5.15719695662359	166.868802982163	-5.15109195021351	166.716097414401	-7.68824433366119	-172.250769652653	
2536500000	-8.06100453125958	172.946001834399	-5.15516473788212	166.720546335461	-5.1444340852149	166.707668883726	-7.6785519630684	-172.176429078628	
2537000000	-8.07067411786258	173.260746447389	-5.16960397196217	166.770624223218	-5.14012940582144	166.677038219877	-7.67920344382185	-172.252062340424	
2537500000	-7.99989226851556	173.261668844212	-5.16233811094469	166.674702032335	-5.15697871740343	166.646017416359	-7.69411124549367	-172.127054821831	
2538000000	-7.97037729049427	173.378750229471	-5.17459021096932	166.691604905184	-5.15195561868601	166.600297857326	-7.68731060498031	-171.950321507074	
2538500000	-7.91110041914896	173.463214587039	-5.15626628924893	166.66302336176	-5.14925424562633	166.656887580059	-7.66659510244474	-171.833062030994	
2539000000	-7.93203119930681	173.772097532486	-5.18157254012009	166.626273450382	-5.15733487308214	166.614861976875	-7.67051932001685	-171.608868200576	
2539500000	-7.85533414205739	173.661542132659	-5.1859731135056	166.497820626922	-5.16454814928732	166.500385321076	-7.6708439677469	-171.777010668526	
2540000000	-7.79553753375746	174.029402403683	-5.16966715940955	166.539905539909	-5.18367730441344	166.562290765449	-7.71886220018406	-171.464828275871	
2540500000	-7.78695146761771	174.135503865879	-5.1754773285275	166.552295466229	-5.15921691821639	166.558626577316	-7.66113567137771	-171.458250288563	
2541000000	-7.72145720737158	174.296638670095	-5.16946116141098	166.552992891883	-5.17977721903141	166.485815868205	-7.68421471420779	-171.290053181508	
2541500000	-7.70854399736331	174.357047508212	-5.18453240479242	166.509829894837	-5.18837477876214	166.557908927581	-7.6908742158591	-171.163822374726	
2542000000	-7.68974608847626	174.81269028089	-5.18838364710184	166.454167026034	-5.19105405973056	166.502853181342	-7.69438893591191	-170.943698791481	
2542500000	-7.6898668370651	174.784877766149	-5.21232187917513	166.420300856873	-5.19740827780315	166.395735946882	-7.7356931501213	-170.945762889704	
2543000000	-7.63381484543033	174.966554285843	-5.19182448277284	166.483516767638	-5.19938808918329	166.473903291538	-7.71281386825685	-170.735548569006	
2543500000	-7.58469834210516	175.147522774854	-5.19813848531266	166.382458434199	-5.20656011129959	166.354941820641	-7.71865479300644	-170.784828980072	
2544000000	-7.56284188198326	175.523597902756	-5.2082436639359	166.454595909288	-5.19149841016024	166.47652785701	-7.68326048486263	-170.592958226995	
2544500000	-7.5368933672003	175.469913051642	-5.207888572365	166.267747976128	-5.21073167883994	166.317793088094	-7.7324833207938	-170.509393967486	
2545000000	-7.51023925284778	175.748022669497	-5.21321695674527	166.33950850781	-5.20513017316989	166.394847643718	-7.71900163766015	-170.39863156584	
2545500000	-7.49317596913357	175.882643982893	-5.20755359970358	166.285039904277	-5.21367157152247	166.280307504703	-7.74389413247547	-170.392381936114	
2546000000	-7.47244562129921	176.248000171724	-5.21619317193829	166.375309154703	-5.20786092475142	166.362189562857	-7.73577618807057	-170.075910644511	
2546500000	-7.41625944191005	176.277019400456	-5.20856351097231	166.284717543041	-5.21386895598006	166.216791146678	-7.72231062067969	-170.210016290281	
2547000000	-7.40055285513244	176.643707347225	-5.20669241386139	166.327478426742	-5.22524353376021	166.308526363748	-7.75085153724814	-169.938521160703	
2547500000	-7.37719814087457	176.803078253066	-5.22492956773186	166.276589596594	-5.23208482810745	166.267417624247	-7.75989456636305	-169.984767946904	
2548000000	-7.39200699317042	177.054119368554	-5.23532026847138	166.286046717827	-5.22037469957896	166.249830559111	-7.75341170894187	-169.85788802911	
2548500000	-7.3593084014231	177.200140014567	-5.23982017572319	166.280601541752	-5.23038681889201	166.131197755391	-7.74415827756478	-169.801653692336	
2549000000	-7.36860229634738	177.399814283203	-5.24491977976714	166.205873481324	-5.23455365397411	166.21928725819	-7.78627386913533	-169.673314625804	
2549500000	-7.35777449405312	177.621792750278	-5.24556427044303	166.244707774102	-5.24748743180518	166.244520051095	-7.78581085666345	-169.470530669299	
2550000000	-7.30711505938883	177.834208752607	-5.24083918691635	166.241736614508	-5.24555136683656	166.255560971794	-7.80041540875944	-169.38553548229	
2550500000	-7.30973845649519	178.156022050476	-5.25156070486287	166.328080300332	-5.26736395769683	166.223094633532	-7.81146137581008	-169.308475537834	
2551000000	-7.27239069962439	178.348711843597	-5.24113744739628	166.304235461683	-5.26164028426917	166.156557546676	-7.78665424308926	-169.339000327997	
2551500000	-7.2610433092259	178.688604662501	-5.24702561090259	166.236036775898	-5.25053166041471	166.223967687689	-7.80650446232148	-169.187698218913	
2552000000	-7.23371832747908	178.968790813154	-5.25544356233123	166.248851858732	-5.25724372624515	166.213102007881	-7.80382164758602	-169.227118732283	
2552500000	-7.27319508605693	179.050432681884	-5.25019316183861	166.195670075435	-5.25528263225541	166.155885924959	-7.77395965794136	-169.104471565082	
2553000000	-7.21551599644339	179.30204431558	-5.25677209982516	166.300184004362	-5.26019384547632	166.214295062234	-7.82694141968373	-168.921364576511	
2553500000	-7.24415643795139	179.608996766173	-5.271168000762	166.25067379389	-5.25640159253043	166.185920358327	-7.82500352682649	-168.903154265715	
2554000000	-7.17548525239299	179.974702283046	-5.2617772596176	166.274314057159	-5.26838113696792	166.189443821922	-7.86502146022892	-168.767151842218	
2554500000	-7.20407911567124	-179.943069686019	-5.27916873632292	166.147280890496	-5.27536598252173	166.18414581385	-7.8621921320805	-168.7748754326	
2555000000	-7.17164991300932	-179.67929023949	-5.26959316026224	166.192908895908	-5.27083441876059	166.114399203591	-7.8419001367468	-168.572428662823	
2555500000	-7.20316030157981	-179.525249939815	-5.28048538187596	166.190268253517	-5.27904538561223	166.145362606435	-7.86996360513916	-168.668070195289	
2556000000	-7.19083313991355	-179.089783344814	-5.2801375627903	166.180042973291	-5.28214867555418	166.169301422564	-7.87181952272312	-168.532848858754	
2556500000	-7.19738297662234	-178.889588442413	-5.27811828029419	166.187099520783	-5.28198282788398	166.224269383594	-7.83757119388554	-168.241599055251	
2557000000	-7.17920723342047	-178.716689543131	-5.28523242634226	166.241360077953	-5.2735977888374	166.150111545252	-7.846667366568	-168.349600183558	
2557500000	-7.19824574011022	-178.312377180858	-5.29656970047277	166.296832632931	-5.2783920338591	166.158492390278	-7.85673282428486	-168.397403003058	
2558000000	-7.18795758288743	-178.225581177987	-5.29650095735893	166.22232139519	-5.31309964012474	166.1979945594	-7.91399446833828	-168.448194429239	
2558500000	-7.16981346214873	-178.083894714471	-5.29852469124501	166.218739242519	-5.30073055650111	166.161110533705	-7.88060504111086	-168.150954482797	
2559000000	-7.18623525043805	-177.712188921262	-5.31940744753079	166.196172516571	-5.29689900816239	166.138773377435	-7.90991286432896	-168.127504205082	
2559500000	-7.16599708140888	-177.460511378591	-5.31522438375607	166.190197956752	-5.30165406195181	166.177652319594	-7.91777192286137	-168.227893942222	
2560000000	-7.17946201774334	-177.395155979372	-5.30034557152037	166.136791277201	-5.29936594120975	166.148959628446	-7.89363451659818	-168.197581611923	
2560500000	-7.17030507752733	-177.1039211716	-5.29793464615295	166.223939559217	-5.29909300642074	166.153363586179	-7.93117291119991	-168.08669957435	
2561000000	-7.19438129922712	-176.768499451367	-5.31501436643619	166.202472699374	-5.31243986789482	166.100006924687	-7.92520500757603	-168.244606997877	
2561500000	-7.16912459832458	-176.413980185185	-5.31198273065165	166.232106305016	-5.30822793351811	166.128832529816	-7.93111903798957	-168.029390225052	
2562000000	-7.17926644469379	-176.18303039616	-5.3186438329279	166.211079869211	-5.29437400457541	166.099229309152	-7.94266529186315	-168.018730743241	
2562500000	-7.19078552955719	-175.952715122017	-5.31806925091752	166.217266730969	-5.30520673351413	166.183858537367	-7.94175474630227	-168.145594933441	
2563000000	-7.21845138268974	-175.774713088865	-5.31019342106544	166.194899771479	-5.31374585754847	166.169707205187	-7.93941512673169	-167.929408303559	
2563500000	-7.23029981290803	-175.526609021868	-5.33206694232243	166.146148806406	-5.32313755749946	166.066373950914	-7.94737886388991	-168.120538687003	
2564000000	-7.22434228735265	-175.343445158831	-5.33284973481232	166.186872615357	-5.31909823674205	166.134205870171	-7.96035102137111	-168.01930585932	
2564500000	-7.25923390310232	-174.879246356184	-5.31858452327484	166.208121438908	-5.32058906041677	166.180511230098	-7.97694522076774	-168.037740226418	
2565000000	-7.23756460776991	-174.840306828042	-5.3419571670003	166.225111800354	-5.3300887883881	166.154512134265	-7.97778583197232	-168.02053924065	
2565500000	-7.23356391475146	-174.427126845533	-5.32370262857341	166.252513389405	-5.33374817812541	166.154380430527	-7.98965938516429	-167.979992305583	
2566000000	-7.2801274798789	-174.300587192377	-5.32291608540652	166.197786525602	-5.32532165008512	166.168857268655	-7.98187090216533	-167.99276950084	
2566500000	-7.27633315690126	-174.168212611578	-5.32922756684911	166.148471516624	-5.32746683264758	166.22199655406	-7.9725358970391	-167.993545300419	
2567000000	-7.27651140828234	-173.926748956175	-5.32542629484429	166.145652821008	-5.33908198420597	166.108058103221	-7.98235857430878	-168.264588186759	
2567500000	-7.28052994941343	-173.837080060091	-5.33171673881467	166.283884438766	-5.34099095520262	166.111389506569	-8.00407525050749	-167.920057366118	
2568000000	-7.3374489429211	-173.378566611922	-5.33816006087752	166.184226841473	-5.33717627827576	166.197667875491	-7.99139055599272	-168.078558973948	
2568500000	-7.32575672522233	-173.430406595226	-5.33702932944343	166.155049316061	-5.32441599617815	166.094880236698	-7.99544727637359	-168.32933920461	
2569000000	-7.34374479016266	-172.802249464685	-5.34417659395991	166.174414517647	-5.33854184728675	166.155390709466	-8.01934731549901	-168.052020989961	
2569500000	-7.33531083001176	-172.953028791789	-5.34525250812924	166.264136417347	-5.33841426820688	166.065074742286	-8.01727349600915	-168.07554691926	
2570000000	-7.36355874398829	-172.534159526718	-5.32970567277921	166.100210680081	-5.33463291798333	166.026514866032	-8.0213505551834	-168.158800037318	
2570500000	-7.37395630984058	-172.679650783647	-5.35437810016114	166.084647894772	-5.3343048299698	166.100888376795	-8.03844885920677	-168.385605736577	
2571000000	-7.4067735658673	-172.205636694519	-5.34953556755865	166.149382239456	-5.3356917215509	166.082749870308	-8.00045960417128	-168.59503791086	
2571500000	-7.42704798062374	-172.131590413935	-5.35659923308789	166.157783762022	-5.34812540100658	166.124181956285	-8.02360709131421	-168.33468083849	
2572000000	-7.45395017496247	-171.77787097635	-5.36229930483865	166.133830456818	-5.3409350093454	166.192192730448	-8.00907080340706	-168.407189902221	
2572500000	-7.46838687757234	-171.750928811744	-5.3491872740871	166.089187909815	-5.34374961580112	166.034454052522	-7.99027567150774	-168.705114187188	
2573000000	-7.47230305875446	-171.757180939757	-5.35781621010058	166.078080215347	-5.33841057109322	166.060379535547	-8.03482760354938	-168.75108199384	
2573500000	-7.50908454058702	-171.355865310002	-5.35631020176611	166.104106510482	-5.34973293720836	166.059601112399	-8.05644120510815	-168.435058373312	
2574000000	-7.53802641682727	-171.191600449179	-5.35929894439572	166.184837622897	-5.35552779022424	166.080344090942	-8.05345008187253	-168.623704767833	
2574500000	-7.55363737194011	-171.119537276088	-5.35553625432963	166.168227785158	-5.35834769066711	166.080848866873	-8.03656373649656	-168.834201107015	
2575000000	-7.60249244281877	-170.738251147858	-5.35005232202582	166.12939435276	-5.34774243121926	166.131826911392	-8.0050149184093	-168.821846212539	
2575500000	-7.61925410526496	-170.699251257665	-5.36528708762343	166.102349064097	-5.3521514045494	166.047846680318	-8.03844803661805	-168.790307176614	
2576000000	-7.63121131098542	-170.49325343243	-5.36244866113523	166.074585755181	-5.35191779507619	166.041100224031	-8.03346498178825	-169.169249389852	
2576500000	-7.65906615553621	-170.325765208667	-5.35053521760328	166.080118930831	-5.35247143360394	166.076910198804	-8.03309425820566	-169.06291971103	
2577000000	-7.65140466865907	-170.330423965755	-5.36106949426158	166.05950032952	-5.34614514352796	166.025291757638	-8.03043497650066	-169.263165550524	
2577500000	-7.70144566099617	-170.194644636596	-5.35255601541377	165.968434711018	-5.35573388662993	166.010557947713	-8.01872616786525	-169.217875928271	
2578000000	-7.71944205452517	-169.952469994806	-5.35920231970211	166.029054053664	-5.35882569725213	166.053900605357	-8.02665833465167	-169.372803397739	
2578500000	-7.75624678588655	-170.046550999476	-5.37101935732407	165.978105397471	-5.35005736178974	165.942163417733	-8.00758096443277	-169.616653808378	
2579000000	-7.76394638732746	-169.998824439628	-5.37433173506406	166.044659532687	-5.34355363525156	165.980221688657	-8.02011619854743	-169.614075238998	
2579500000	-7.80836302114837	-169.739307230999	-5.36144044946009	166.028127655155	-5.35215829066059	165.94883884973	-8.0178918537029	-169.679713753066	
2580000000	-7.84786622758518	-169.702069697057	-5.37023688741853	165.991821371046	-5.35099207708703	165.94229654356	-8.01006449927672	-169.886322726701	
2580500000	-7.88371304882734	-169.456260984653	-5.35940989262249	165.972214349142	-5.34866555184769	165.904534721377	-8.02421694272992	-169.912602317767	
2581000000	-7.88401296457121	-169.299232549192	-5.36008039770889	166.034014826028	-5.35617919769494	165.994434925345	-8.01779853282161	-170.011389524223	
2581500000	-7.90871934585773	-169.526096227702	-5.36990559365517	165.935011172001	-5.35322071621638	165.873956245837	-7.98149783814908	-170.172481816035	
2582000000	-7.94261229445519	-169.096188245106	-5.32874112129855	165.827537558765	-5.35274845543817	165.929682876488	-7.9733582490775	-170.18631520491	
2582500000	-7.97049096029956	-169.431549663067	-5.34718116646508	165.921079829543	-5.34044129720082	165.758765289639	-8.00044235045693	-170.311434712634	
2583000000	-8.00830182392512	-169.160436389715	-5.3608533675259	165.818155716998	-5.35554477824362	165.813943316978	-8.00411351780702	-170.527033756421	
2583500000	-8.04458734880302	-169.165743832668	-5.34999103942737	165.853212112217	-5.35448127361752	165.792566334592	-7.98027941915091	-170.645958513499	
2584000000	-8.08339333668495	-169.072033962553	-5.35991766714638	165.803459925621	-5.35712315143568	165.905785970307	-7.98699546414659	-170.620437857817	
2584500000	-8.09164719678115	-169.263795426904	-5.37425298865512	165.810330384838	-5.35193069083618	165.726964318169	-7.98872740752967	-170.980348214759	
2585000000	-8.12179599821285	-169.104514165008	-5.3640333582368	165.679636415357	-5.34512221377625	165.600104818279	-7.99305700964833	-171.036292890928	
2585500000	-8.19780380546694	-169.01913210618	-5.37608735620115	165.697871345131	-5.37241462143214	165.784022395307	-7.98323923257904	-171.260477660065	
2586000000	-8.20369358069219	-168.928532469841	-5.35192222155743	165.597779333557	-5.34064125160046	165.749077629772	-7.96962563756767	-171.264927104326	
2586500000	-8.22284356263047	-168.90435503493	-5.34528351384573	165.680089804149	-5.34863850511624	165.622295019695	-7.95037253234414	-171.300494503717	
2587000000	-8.25009554893785	-169.105759321625	-5.34492290971628	165.599855317992	-5.35557905395119	165.667183013038	-7.90159946362607	-171.647495831965	
2587500000	-8.24378799157969	-169.032037585006	-5.35007734446886	165.593969991876	-5.34345564005301	165.64984657821	-7.91999853160568	-171.6724370315	
2588000000	-8.32651201769398	-169.080489745823	-5.36147297157232	165.564740678386	-5.3400762113893	165.508134711175	-7.91098088752993	-171.78027258379	
2588500000	-8.35871810026873	-168.929239066698	-5.35234685239978	165.575332035864	-5.33370450322013	165.507415751626	-7.91102772246766	-172.08358085822	
2589000000	-8.38598354409672	-168.999295685248	-5.34682692104146	165.516229653065	-5.34680491778739	165.540091947231	-7.88290247023201	-172.123013812549	
2589500000	-8.41346933222533	-169.175188803916	-5.34875276632039	165.503912821041	-5.35530986421003	165.457878646531	-7.86121357965781	-172.30035737162	
2590000000	-8.44779327174147	-169.276832144551	-5.3441920661453	165.42728711288	-5.33715055585033	165.455852763095	-7.86502492779062	-172.279711782836	
2590500000	-8.47544295612965	-169.213543365319	-5.33520403591993	165.446382613308	-5.33134190324211	165.408217380783	-7.85169484836497	-172.454359158387	
2591000000	-8.51657233366339	-169.397922139504	-5.35072936012995	165.406103644966	-5.34282466610408	165.296042967745	-7.87945469432402	-172.755447015606	
2591500000	-8.56463220021895	-169.347984801869	-5.35547745031345	165.361074192476	-5.36388415657213	165.399454564222	-7.84690030167374	-172.805604579751	
2592000000	-8.54854318973473	-169.549057485245	-5.35578444471679	165.287557548615	-5.33773084782139	165.350292677371	-7.82364920649561	-173.008386363186	
2592500000	-8.61598792879904	-169.610620506221	-5.343364731742	165.401498144156	-5.35299776150667	165.256230080058	-7.81340300097389	-172.990092781141	
2593000000	-8.63808628665839	-169.696366153575	-5.33930313598108	165.154256426092	-5.3457221954248	165.274645166864	-7.81395040669871	-173.340231210021	
2593500000	-8.67074704096009	-169.789332009552	-5.35810645107368	165.135023399266	-5.31609677708311	165.228959781598	-7.79836253798908	-173.611198269653	
2594000000	-8.7499129964801	-169.986974919785	-5.34635185987205	165.292615859104	-5.35515535583986	165.190919931765	-7.80756316575446	-173.360916133143	
2594500000	-8.68325710988192	-170.105831997742	-5.32472950399151	165.195628806952	-5.34032673674031	165.122899488345	-7.79744192099558	-173.694786674519	
2595000000	-8.75603518656817	-170.164282450985	-5.33043066770852	165.104184199086	-5.3489595828968	165.09373746955	-7.75770107970125	-173.88096283033	
2595500000	-8.78345757378148	-170.330712094698	-5.34299811188735	165.081484829437	-5.32579053883827	165.037375291379	-7.72603027309601	-173.932058135585	
2596000000	-8.82553268754865	-170.711117293152	-5.33106783659737	165.013345734423	-5.34719176780876	164.975978207268	-7.73296436880428	-173.991354928929	
2596500000	-8.83123446626969	-170.912302763267	-5.3131083358743	164.952733172007	-5.3417469257694	164.950832438331	-7.70268487190273	-174.232407653323	
2597000000	-8.8365601251385	-170.93169555558	-5.30984931129746	165.049549238233	-5.32991112507132	164.803392959189	-7.68983776112575	-174.385751942925	
2597500000	-8.93168639211043	-170.987903187335	-5.33527016056016	164.8735219511	-5.30951658399335	164.923987600031	-7.66217190198427	-174.447136784604	
2598000000	-8.92601579830198	-171.26692527509	-5.32015894321835	164.776757272699	-5.31351605046381	164.808568038792	-7.65377435325551	-174.47033248626	
2598500000	-8.92797155508699	-171.572519954951	-5.31738071036738	164.748628663711	-5.33854994344026	164.657473633332	-7.65614041654832	-174.771405650837	
2599000000	-8.97264336855931	-171.745221464778	-5.33115865568762	164.79415659852	-5.32217610676935	164.754117222708	-7.64094039149748	-174.91688326367	
2599500000	-9.00270425592813	-171.802210252394	-5.32816644004081	164.63432829615	-5.30990077557411	164.659786469259	-7.62925217469176	-175.026415736649	
2600000000	-8.98831853867223	-172.17210968648	-5.32831980671728	164.628250518718	-5.3115006701485	164.519664652773	-7.63280217516559	-175.37738360416	
2600500000	-9.04122692464063	-172.298130281681	-5.31428445093736	164.642958888369	-5.31975298597863	164.507922279124	-7.59595737323265	-175.227355482485	
2601000000	-9.04228507063791	-172.52261655657	-5.30191224690806	164.457168862042	-5.31321729668603	164.466417319114	-7.56303647700132	-175.370636127188	
2601500000	-9.08807672431019	-172.71831628394	-5.32375639389026	164.377116286475	-5.30843891067921	164.479356604939	-7.57314750426652	-175.401635654457	
2602000000	-9.10670073867902	-173.170935843096	-5.32116174081417	164.428743867925	-5.32229302275744	164.3716458389	-7.57272233074133	-175.688942047434	
2602500000	-9.13634909936312	-173.483331974704	-5.32002835137599	164.402244416375	-5.31900127295508	164.405039137877	-7.55543640472889	-175.629518010806	
2603000000	-9.13122598235477	-173.721066548027	-5.31126208891845	164.325275723022	-5.32000518236192	164.242377514997	-7.49635142346246	-175.837629694152	
2603500000	-9.16428067533092	-173.963470101103	-5.31888322305263	164.27726075058	-5.31033179857608	164.261303830778	-7.52168124080826	-175.966697606128	
2604000000	-9.16127562350926	-174.269686660923	-5.31909904934956	164.163600833993	-5.30404410420383	164.15309578791	-7.50634491323693	-176.144828427044	
2604500000	-9.17642938002274	-174.48164124393	-5.3086478395875	164.008301385643	-5.31784220872261	164.15931997846	-7.47662059250915	-176.149572537079	
2605000000	-9.224012682131	-174.839520190742	-5.31998100939139	164.179678546884	-5.3025288490111	164.055148666655	-7.49734815090055	-176.277991371219	
2605500000	-9.17316372671512	-175.076523316209	-5.30781759448141	164.000270652248	-5.30683317572113	164.01402334213	-7.43886878250726	-176.482193968675	
2606000000	-9.19952466862727	-175.174241234801	-5.30105936559008	163.930935509869	-5.29409700341119	164.011919087401	-7.42167452504858	-176.388895620339	
2606500000	-9.22477371195053	-175.458033592132	-5.30734794597606	163.946275751408	-5.30726905454401	163.945561224528	-7.43317927162505	-176.602259874839	
2607000000	-9.26022319677836	-176.025206036519	-5.30837060625078	163.871318952835	-5.32265623823166	163.804176708731	-7.40548433036713	-176.62143974921	
2607500000	-9.23328395663357	-176.193501043016	-5.31578150281896	163.787359724581	-5.31291136755974	163.760562426431	-7.38867119785766	-176.750202983151	
2608000000	-9.21465824671289	-176.450731150101	-5.31432141589011	163.652282020437	-5.29316790846335	163.675603722715	-7.38084733475295	-176.825289148165	
2608500000	-9.23736255118008	-176.795252900298	-5.30584184721494	163.621960797479	-5.31454756343082	163.664344368363	-7.37041497176974	-177.119945208004	
2609000000	-9.24134927500496	-177.360507822142	-5.29351226788737	163.580748212455	-5.28348127718137	163.524488139053	-7.32755791850746	-176.870753094329	
2609500000	-9.25670048831306	-177.565012735387	-5.30520769852628	163.605418013667	-5.31334962801893	163.51073232251	-7.34700589210339	-177.136436976143	
2610000000	-9.24730592280419	-177.843432403575	-5.30862911222719	163.446470822678	-5.30137615911198	163.48357944937	-7.31737065587584	-177.224102762599	
2610500000	-9.26537541344116	-178.202277186139	-5.30341932012153	163.381620888753	-5.29612644654189	163.390612792621	-7.29138110573747	-177.368303114544	
2611000000	-9.26319553752899	-178.583836888212	-5.31444590545288	163.303976578298	-5.29228283883202	163.325843135268	-7.27956964786805	-177.422404196002	
2611500000	-9.26394799050425	-178.729711100351	-5.29957476239133	163.248055121518	-5.31150073018281	163.209065792424	-7.25576919909558	-177.527705561111	
2612000000	-9.24603498830273	-179.243936033974	-5.30034911854618	163.177778250159	-5.30475391946839	163.143018115926	-7.26769519555513	-177.610240586227	
2612500000	-9.26327802142099	-179.489260732111	-5.31202766659368	163.094024946786	-5.30633808094156	163.061484050237	-7.24685061283002	-177.724722358139	
2613000000	-9.21686033156475	-179.867961665078	-5.30536943098479	163.04494745564	-5.29500228072596	163.044560739251	-7.23766283983348	-177.656104691242	
2613500000	-9.21676293937966	179.862791124486	-5.29959386745526	162.949579490091	-5.31053775196766	162.906317995197	-7.24099925967441	-177.653192321718	
2614000000	-9.21597026421433	179.405711543082	-5.30384191593277	162.984359916197	-5.29419842485631	162.866807440505	-7.23061735294909	-177.612151716865	
2614500000	-9.16738770058278	179.470296806982	-5.30405327316632	162.831682450181	-5.30171040934861	162.839862025343	-7.19784099515192	-177.871393698759	
2615000000	-9.2012030042343	178.901687198647	-5.30920223318092	162.737330410067	-5.30503994798571	162.746794696736	-7.20483211327173	-177.846091093958	
2615500000	-9.16438393115236	178.525865928372	-5.29916030852642	162.645143112888	-5.31120052164349	162.645094184302	-7.18142885838085	-178.122196858973	
2616000000	-9.14037242797773	178.309590289327	-5.30668288822382	162.551298866299	-5.30061450377568	162.618276003009	-7.16685548339533	-178.108815544451	
2616500000	-9.1402682007706	177.977738134382	-5.31416562587571	162.545549329062	-5.31325432609851	162.52619926032	-7.16958669757736	-177.955577837966	
2617000000	-9.11917232907302	177.910803498564	-5.30399931385444	162.503860844504	-5.29742479528028	162.468738150996	-7.14195702269944	-178.087411208298	
2617500000	-9.10401837630958	177.46694897867	-5.31041245167933	162.396193282784	-5.29768121985062	162.358253996176	-7.14105272433836	-178.005804064066	
2618000000	-9.08414730991797	177.192128101088	-5.31386651921845	162.321189247128	-5.31224777733651	162.281667263084	-7.11591892967487	-178.17626561796	
2618500000	-9.04946762878319	176.657273856641	-5.30953318411289	162.300085575105	-5.29882827206778	162.253947854241	-7.109704982017	-178.070894975206	
2619000000	-9.03029879336356	176.475106685753	-5.29769666688645	162.279372484562	-5.31161454817217	162.271492589423	-7.1065377639453	-178.022540130811	
2619500000	-9.00089424500044	176.111835134415	-5.2997057995718	162.194494796782	-5.30437041799989	162.11006122506	-7.10358633586522	-178.048061006064	
2620000000	-9.02578701794364	175.92042921036	-5.30577107178274	162.063823641289	-5.29846104213453	162.127318205481	-7.09424890670247	-178.147174913375	
2620500000	-8.98189744226775	175.569357710744	-5.31839730094961	162.093444101292	-5.30176734991162	161.98199160973	-7.08153892958145	-178.253568510349	
2621000000	-8.97836765722059	175.539043933268	-5.32377378318759	161.994707947945	-5.31189071372969	161.9542931356	-7.10695634572122	-178.19265757026	
2621500000	-8.93192300924052	174.91438485159	-5.31048861278833	161.765120431413	-5.31774066403947	161.891658143643	-7.05850021981905	-178.23167651536	
2622000000	-8.89004146438052	174.756250150909	-5.30582283475328	161.747742820786	-5.31137200033093	161.769737315702	-7.06119108964389	-178.287759131688	
2622500000	-8.87615326840789	174.541875052682	-5.33515644037285	161.654805621225	-5.31407787827519	161.718997399986	-7.0708074558492	-178.354872357665	
2623000000	-8.8729736524307	174.565970047962	-5.32510604411644	161.727323219007	-5.32010868347521	161.664516043694	-7.06675333809572	-178.388934729627	
2623500000	-8.82430850217738	174.143000741988	-5.31389128262115	161.635683062665	-5.3246286662157	161.6224160209	-7.05805229607282	-178.089022434869	
2624000000	-8.79579656372643	173.912610762415	-5.3184851309761	161.579412991472	-5.32361265528711	161.503318352932	-7.03377199679133	-178.260320114701	
2624500000	-8.73947666639869	173.539706795531	-5.31943086978841	161.438634900412	-5.30962245218837	161.412131754072	-7.01626151646809	-178.36004327825	
2625000000	-8.72877599754342	173.336403026733	-5.32767938305563	161.375040937058	-5.33744150416924	161.296075708003	-7.02153948782516	-178.33252502849	
2625500000	-8.70336112682337	173.240716619741	-5.34295387190825	161.293924428234	-5.33570354315378	161.304381970786	-7.03467122875626	-178.356946960405	
2626000000	-8.69446151254376	172.897956975063	-5.33715318123698	161.270071876964	-5.32561915889526	161.323543573028	-7.03767322252391	-178.165620947315	
2626500000	-8.63593190835805	172.589174433021	-5.34899044790647	161.13875462726	-5.34021963793827	161.069458668138	-7.04665940116566	-178.255132385603	
2627000000	-8.5934853074633	172.62636767528	-5.32510109840328	161.139132384397	-5.3122591056892	161.201448524774	-6.98813940796156	-178.094782456995	
2627500000	-8.57135829081032	172.310580361554	-5.3305861975933	160.954825875458	-5.32359004307647	161.034795796784	-6.99434135085039	-178.249301512111	
2628000000	-8.52849426282472	172.136290457453	-5.31393273335142	160.973370120735	-5.31603336389224	160.986594379001	-7.00581064670909	-177.996557357225	
2628500000	-8.51238167008195	172.007380766493	-5.33971295272228	160.85258454849	-5.34334966048601	160.934245187187	-6.99640155743904	-178.029748997397	
2629000000	-8.45639957923454	171.783120090097	-5.34745304128286	160.905363152019	-5.32838027177709	160.815482962917	-6.99935860450864	-178.013018974806	
2629500000	-8.47424537786426	171.644822309309	-5.35465873407371	160.735781604829	-5.33513741128627	160.661853626654	-6.98577727307068	-178.174795529144	
2630000000	-8.36293164334694	171.332698810448	-5.33256075192083	160.650134527077	-5.34850974100894	160.741963650696	-7.00878389703128	-177.956654812865	
2630500000	-8.37383132500454	171.30700504634	-5.3468447814079	160.496307852422	-5.34718858691678	160.533618797412	-6.99319383647903	-178.243093540582	
2631000000	-8.32974438749806	171.180489503081	-5.36095150085802	160.70451597515	-5.3454098391298	160.573264483654	-6.99336324751461	-177.83068623051	
2631500000	-8.37219662426437	171.100811220232	-5.37849494707596	160.519255490074	-5.36646607448607	160.502990026027	-6.97640296129974	-177.836675192479	
2632000000	-8.23984779581527	170.922837994334	-5.35172063587703	160.437143661369	-5.34739497763628	160.512110719592	-6.99260994408641	-177.826498024148	
2632500000	-8.22677296016457	170.826631370438	-5.34008088009619	160.447259465694	-5.3494369379664	160.443081036128	-6.98900409690051	-177.668684724574	
2633000000	-8.20907087012182	170.448593513746	-5.3745534078496	160.268302932343	-5.34946486360785	160.395480535109	-6.99001907663428	-177.661156355346	
2633500000	-8.17174009748359	170.576119957356	-5.37100245828517	160.304250394802	-5.34487361606308	160.260013209407	-6.98436157773352	-177.613048328586	
2634000000	-8.12546391835108	170.449264519266	-5.37166168276649	160.191409421663	-5.36840086885833	160.156612257044	-6.98310422714057	-177.722094901545	
2634500000	-8.09093762192504	170.415666828188	-5.36196759400998	160.152377335415	-5.37835304922432	160.147591588125	-7.01575198381993	-177.783704598034	
2635000000	-8.0630093159325	170.379997319051	-5.36660978293689	160.153736122352	-5.35259301791022	160.136381632471	-6.99002138600766	-177.594676728674	
2635500000	-8.05014719642765	170.398429688006	-5.37405103167217	160.080317917516	-5.3593240305772	160.108613265845	-6.98056566633181	-177.501588515058	
2636000000	-8.04521134213059	170.279139751747	-5.38935247428268	160.051785642151	-5.38005936840919	160.013759896975	-7.01415108807798	-177.473947142631	
2636500000	-7.98385507766679	170.246401416051	-5.39261406183222	159.844784939206	-5.38917846905785	159.995611205732	-7.05735228551672	-177.39788907005	
2637000000	-7.95039158498961	170.1537540566	-5.38649047270784	159.835013398468	-5.37720849831279	159.881125577614	-6.99890368034141	-177.51274701253	
2637500000	-7.92648784813378	170.050821682317	-5.39616149482244	159.834829069942	-5.37704803648541	159.871296618069	-7.00655083916237	-177.299765544287	
2638000000	-7.86883811003467	170.039320368939	-5.38516391913576	159.787786255779	-5.4186632019091	159.768022291896	-7.04740119782231	-177.159182567857	
2638500000	-7.85832541764897	170.019600124538	-5.37716181884257	159.701338680904	-5.40821280236115	159.717501141147	-7.03252505712083	-177.155135241667	
2639000000	-7.82460428542005	170.070379889869	-5.40187235203117	159.773575020839	-5.37763322290053	159.765591568574	-7.00506679129647	-176.940504894067	
2639500000	-7.77285315094483	170.069065209711	-5.4041258879727	159.610599643529	-5.39325381576931	159.689850895935	-7.02589785293264	-177.024303123628	
2640000000	-7.73421564587267	169.973248436791	-5.39946573735224	159.560878812031	-5.39770028180914	159.565044298598	-7.0627303924999	-177.020422343454	
2640500000	-7.70540679932894	170.122968950641	-5.38963647720216	159.639852578595	-5.40895898831974	159.634386770678	-7.03519263900514	-176.682977280014	
2641000000	-7.68997391116179	170.172894756811	-5.40983903660695	159.595983314582	-5.38668614737116	159.57761237763	-7.01051942993419	-176.654910181948	
2641500000	-7.69740131692862	170.128584340701	-5.41109904028573	159.512723471729	-5.40501978420811	159.47046841855	-7.05049975678308	-176.76773423848	
2642000000	-7.63828575711802	170.085894456923	-5.41142001890977	159.403067621632	-5.40614506072885	159.421254774291	-7.04821731607114	-176.606975877429	
2642500000	-7.62716674555076	170.136024127272	-5.42162436174991	159.424225068868	-5.42395930049888	159.529232703307	-7.08041977519692	-176.495913736424	
2643000000	-7.56950264703739	170.197309306747	-5.41127778124597	159.342428932816	-5.4067777124771	159.362409652427	-7.05772566731297	-176.629500955886	
2643500000	-7.54094429093245	170.154574184511	-5.41408558565941	159.319452101738	-5.42578247291695	159.409093147648	-7.07411669601104	-176.473149412947	
2644000000	-7.50246445502137	170.143189370973	-5.4287410613893	159.302187256764	-5.41662650041631	159.43397791474	-7.07460163233521	-176.233473115366	
2644500000	-7.50895152690664	170.32570805701	-5.42767768491125	159.298501421172	-5.45011064139104	159.354453984946	-7.07603860627238	-176.2485062482	
2645000000	-7.48507196931584	170.454608339282	-5.43411365176291	159.163759092527	-5.44522203047218	159.27368374644	-7.11073634653783	-176.439307933947	
2645500000	-7.41370095368087	170.725375660428	-5.43883918225902	159.359004297917	-5.41508600244646	159.22920324013	-7.08500656328668	-176.214624334117	
2646000000	-7.41366347949983	170.712082750728	-5.43910975272699	159.272237108022	-5.4651942039806	159.189494435103	-7.13914985720805	-176.221818049913	
2646500000	-7.39556455970789	170.712055038066	-5.4376237704073	159.167079731911	-5.46234388096756	159.065537960027	-7.13346870542442	-176.048959010902	
2647000000	-7.40593959531914	170.60652674128	-5.47298290278236	159.113765221197	-5.44046455222337	159.174547093097	-7.10960348830401	-175.932420604269	
2647500000	-7.36687286197766	170.748990752651	-5.44942818065271	159.097375117309	-5.44644633989679	159.066033562672	-7.1269487330948	-176.012954345022	
2648000000	-7.29585013099252	171.018447544217	-5.4494498500483	159.046188842493	-5.42898607489717	159.109290171014	-7.11737947954186	-175.924398206844	
2648500000	-7.30591580998324	171.09658409808	-5.4719914892091	159.056689662399	-5.47034497632874	159.003065833701	-7.192640323217	-175.884330421763	
2649000000	-7.28034540914274	170.953876261958	-5.47016892164804	159.064637600115	-5.46510078164229	159.172674016379	-7.1475310242648	-175.415276188752	
2649500000	-7.24499213100169	171.292666133241	-5.46187553657108	159.096052019886	-5.46772670035453	158.97867624298	-7.17921373856275	-175.694280035198	
2650000000	-7.23426754077404	171.075593761807	-5.4858287517514	158.930080615176	-5.47451049884052	158.968866319174	-7.1732851347624	-175.345664238707	
2650500000	-7.21622455495352	171.272203427292	-5.47807322377949	158.969851184466	-5.49193310533394	158.946699763605	-7.20110889426918	-175.472381642409	
2651000000	-7.19391704413726	171.49904559574	-5.49307598932158	158.957154741878	-5.49224135092771	158.919617599386	-7.22333310024422	-175.323899612577	
2651500000	-7.20798182131197	171.50664190675	-5.48638237849301	158.856116834324	-5.48558213416663	158.887530706605	-7.20855819998406	-175.375539965738	
2652000000	-7.20460298194207	171.641054145577	-5.48979899045948	158.913490566549	-5.50056483442802	158.964582339864	-7.21362160944017	-175.319599194108	
2652500000	-7.14264569209206	171.819689457516	-5.48262657808932	158.826983531068	-5.4827829499191	158.911230660147	-7.20714231278234	-175.275730464136	
2653000000	-7.11920106595306	172.018679573701	-5.49475833675382	158.817948006024	-5.49211888187391	158.894849736166	-7.21983627149021	-175.234110028811	
2653500000	-7.11140304685891	172.225584698941	-5.50794012477118	158.793347778545	-5.49380263987349	158.881213196365	-7.22149664208688	-175.198759825825	
2654000000	-7.09448059701139	172.270639753299	-5.50803856545561	158.830134105418	-5.50896222758394	158.800828463205	-7.2672360877608	-175.265088060492	
2654500000	-7.09004102345423	172.451739072727	-5.5075595650483	158.858293100423	-5.4989240951206	158.892951770878	-7.23652581644434	-174.811429877439	
2655000000	-7.05899422786685	172.6281025351	-5.51354054572641	158.881076583787	-5.51580602306016	158.798481395204	-7.26938775423902	-175.002037156135	
2655500000	-7.07604309742845	172.494933277596	-5.50613809669685	158.79531551947	-5.50561359200469	158.802876465625	-7.24553227724199	-174.907128119451	
2656000000	-7.07023770600303	172.683503996567	-5.52692244969837	158.735432088684	-5.50862059442764	158.852153615965	-7.25907793866452	-174.688455683476	
2656500000	-7.05702542836142	173.001737354628	-5.52509744977143	158.743348249243	-5.52170003726745	158.791099274707	-7.28643324449637	-174.859862747857	
2657000000	-7.01702427382833	173.072843369462	-5.52771270767645	158.777563528206	-5.53497946158125	158.714955989308	-7.30389942008386	-174.733015793158	
2657500000	-7.03578488314445	173.411120025628	-5.53711651949944	158.688778934474	-5.52949742693956	158.799111715969	-7.35213761259033	-174.66915900597	
2658000000	-7.01531036612022	173.536333249241	-5.52799343309422	158.766829776127	-5.53860763153566	158.759396262549	-7.28300182003582	-174.777034634724	
2658500000	-6.99940140750703	173.540650584899	-5.54735608867042	158.687549464428	-5.51898049706638	158.708665844814	-7.28830285534247	-174.688023166257	
2659000000	-6.97516251080192	173.649574603848	-5.53297855276639	158.677356973063	-5.52645467757927	158.69526112002	-7.31542146046677	-174.56608777425	
2659500000	-6.9632028701861	173.852869408327	-5.53718251686633	158.70442953841	-5.53838070758095	158.759188253512	-7.32649639143007	-174.642165244506	
2660000000	-6.95353307699872	174.053757519949	-5.54300812369166	158.703783948102	-5.53536554450364	158.677907732756	-7.34136010541787	-174.612695825004	
2660500000	-6.94670257142025	174.206090540396	-5.54215296385015	158.718074400899	-5.55164426939791	158.697170008147	-7.35759362535714	-174.703801261928	
2661000000	-6.94045738738456	174.412235069961	-5.55576733211708	158.63561619275	-5.54893744265268	158.735679445934	-7.37058146225893	-174.328097416382	
2661500000	-6.93274743883256	174.594581652782	-5.55560695117477	158.716795939383	-5.54823780799017	158.756308122459	-7.38549414138041	-174.534169922018	
2662000000	-6.92494604583235	174.713467124276	-5.5623013572115	158.679071642232	-5.56026167811718	158.720661694659	-7.37061706529559	-174.455820302862	
2662500000	-6.9006933939041	174.950395516165	-5.55678482749132	158.669662298506	-5.53967015169286	158.708107379972	-7.36767008540105	-174.469805217747	
2663000000	-6.92520387515352	175.09634886882	-5.5650223623865	158.62454515415	-5.55399875279825	158.646120306107	-7.38591574837739	-174.465978582756	
2663500000	-6.90536436837732	175.269157133515	-5.56614290315926	158.650587228981	-5.55496763046611	158.736128416972	-7.40419151666455	-174.431749437505	
2664000000	-6.92488192844441	175.538474257199	-5.57065041901567	158.69549132926	-5.56786006200892	158.660312658383	-7.39629946478547	-174.347726416273	
2664500000	-6.89629623425191	175.677554590697	-5.57449216389185	158.596186056876	-5.56220201233726	158.628313441981	-7.40658773761922	-174.484709775811	
2665000000	-6.8963113385947	175.646800046992	-5.57397933883285	158.782394950052	-5.57856479072521	158.705694513361	-7.4168947761863	-174.136022111223	
2665500000	-6.88816827980664	176.004352957417	-5.57851291294633	158.726977273432	-5.56705616374325	158.724599432604	-7.41425773346711	-174.148293117124	
2666000000	-6.87986917033688	176.29044633806	-5.58352646187685	158.631586324002	-5.5704450560476	158.712811589566	-7.45002059226572	-174.313717681632	
2666500000	-6.89898134795032	176.343146327892	-5.57986103157754	158.675792467478	-5.56940337898427	158.693957669859	-7.42862333959026	-174.347171726009	
2667000000	-6.88668994394799	176.691830250582	-5.58270947158699	158.660265954569	-5.58161437959562	158.675220341752	-7.4401205381319	-174.230152323733	
2667500000	-6.86841755030303	176.54400179862	-5.59662485798072	158.722811719839	-5.58112263229437	158.686807946288	-7.43333935260661	-174.290880793037	
2668000000	-6.88358411545815	176.804041374903	-5.57784975267122	158.621675855276	-5.57008453449161	158.641047250919	-7.44593387634016	-174.336036016554	
2668500000	-6.89049976978209	176.922967327231	-5.57989811806956	158.565399274669	-5.57679130911731	158.657909513083	-7.43112918451922	-174.53959307858	
2669000000	-6.88410778670697	177.245710144054	-5.58962591063356	158.768881278022	-5.58330749957175	158.706665757631	-7.44377674385453	-174.228242716341	
2669500000	-6.89038182342151	177.423375670718	-5.59504230717066	158.639964600145	-5.60530137310567	158.690051026871	-7.43213395511346	-174.347578951935	
2670000000	-6.90935477711731	177.679427795403	-5.58121020029943	158.584559292837	-5.59540288829911	158.676192254964	-7.44488504388219	-174.2980723083	
2670500000	-6.87708552699016	177.656166689603	-5.60593146103593	158.667621132746	-5.59249676356256	158.677260649623	-7.48293235544867	-174.371398575236	
2671000000	-6.89237523429621	178.020553138097	-5.59399102794948	158.729692739558	-5.5881823157995	158.686789435315	-7.46308016188162	-174.603924827597	
2671500000	-6.87968432586845	178.102925881588	-5.58862375423692	158.66658055781	-5.58977907793142	158.695926951669	-7.45963760161941	-174.349253029471	
2672000000	-6.89008874906341	178.260297743084	-5.61368864561324	158.566852356588	-5.5963480649099	158.719345941535	-7.46011943703198	-174.615631886508	
2672500000	-6.9113520513587	178.405878228922	-5.59240216975306	158.67291645779	-5.58680794107465	158.740847579897	-7.46291103592764	-174.58599298363	
2673000000	-6.89224969430552	178.776541928003	-5.60234362654911	158.712036061605	-5.59334345999446	158.688531093416	-7.461598963071	-174.555991536475	
2673500000	-6.89234829197989	178.747829775209	-5.59745350773052	158.775682532291	-5.59086842660404	158.7047886692	-7.46192117300997	-174.625507941174	
2674000000	-6.90566613729532	178.953000480262	-5.61275422385322	158.609889430549	-5.59164659150258	158.762224017492	-7.4949104489885	-174.677021529791	
2674500000	-6.9065668233151	179.051173173203	-5.58712630385533	158.606788749183	-5.59602110023134	158.747572378034	-7.47670922973303	-174.579375241471	
2675000000	-6.95244603266506	179.353238890054	-5.60341760711923	158.73610714484	-5.59516819468803	158.674498780201	-7.45556774673161	-174.655108503164	
2675500000	-6.92816691776204	179.370862418309	-5.58542388450338	158.638140286968	-5.61655089820693	158.639606685478	-7.46798977181341	-174.815221083226	
2676000000	-6.93639960623151	179.549720020172	-5.59846235460252	158.714867698149	-5.5941356649182	158.712925474618	-7.49834367822721	-174.688508374328	
2676500000	-6.93613803326961	179.808774500715	-5.60279580189696	158.73077689416	-5.5936369490575	158.789448436706	-7.46445074403686	-174.821483081942	
2677000000	-6.93371121915202	179.968129330065	-5.60172806317225	158.740735809356	-5.61306336054651	158.674643164016	-7.48753026134032	-174.784740324871	
2677500000	-6.97915564853774	-179.964084263032	-5.61586280752565	158.773949545904	-5.58678024243482	158.692666261815	-7.46031152545034	-174.822890291161	
2678000000	-6.96223770169644	-179.820031754111	-5.6260447261003	158.71515098321	-5.60288633786393	158.716904468053	-7.4766910494872	-174.848541242951	
2678500000	-6.98499933628118	-179.691140343934	-5.61643956051418	158.676100222071	-5.58902104833574	158.750935466249	-7.45471491424011	-174.85819011078	
2679000000	-7.00610352860386	-179.48685192138	-5.59624194235314	158.629415270045	-5.60468031628916	158.692283524416	-7.46785083528087	-175.070732543324	
2679500000	-7.00990040803777	-179.43090934755	-5.60167926595966	158.642379992331	-5.60467917556931	158.739616891162	-7.45604731339115	-175.190254027274	
2680000000	-7.02507498799831	-179.079226918098	-5.5969108930298	158.719995051145	-5.60158459215343	158.749908838659	-7.44932894905381	-175.082354184668	
2680500000	-7.04232358193656	-178.919276860228	-5.59423138110544	158.592900438041	-5.60416387339481	158.694118967621	-7.4275143796777	-175.328290750796	
2681000000	-7.03854551726111	-178.844840089217	-5.60914314354463	158.617940170176	-5.60294596394447	158.727063559956	-7.45038123240831	-175.5910029675	
2681500000	-7.08167223995763	-178.791888792623	-5.6134362014116	158.628490580984	-5.59485694458746	158.694264215127	-7.45374968045596	-175.380466304228	
2682000000	-7.06181712033423	-178.555655651675	-5.61731201756645	158.575389256913	-5.59623974525056	158.700635579977	-7.43394141369784	-175.478899188898	
2682500000	-7.07993309023161	-178.291684464802	-5.60280373038445	158.688626313685	-5.60050947631729	158.732786872201	-7.43096939298061	-175.516189748744	
2683000000	-7.10233373155707	-178.359388344453	-5.60860437233576	158.658286145031	-5.62727177085892	158.72196772074	-7.44799305033785	-175.730036049472	
2683500000	-7.11378563695453	-178.311179010958	-5.58258164107414	158.754053169202	-5.62355103940246	158.671586905665	-7.43438930562229	-175.605444433721	
2684000000	-7.09667521337491	-178.140594408653	-5.60638708422444	158.60227178993	-5.57833316617149	158.726544805761	-7.4160492751997	-175.875840411244	
2684500000	-7.11052444998207	-178.164318024844	-5.59531748233031	158.5546958145	-5.58657930526364	158.563517767489	-7.39467508236361	-176.144682332207	
2685000000	-7.12066779091813	-178.05044152778	-5.59165068502105	158.56880827387	-5.5728785867736	158.60766443723	-7.38678786879711	-175.939760963646	
2685500000	-7.13058222990802	-177.885337767665	-5.58377163324562	158.576412975126	-5.58219034938781	158.645754908681	-7.41252515359937	-176.114379030226	
2686000000	-7.16091342359203	-177.707209465557	-5.58337939620407	158.587481844663	-5.58782376491571	158.563687389131	-7.39008450158451	-176.114037452106	
2686500000	-7.21205649292125	-177.568869779553	-5.59101067546787	158.647420229852	-5.59891735154458	158.675829461461	-7.40410955998281	-176.164265649614	
2687000000	-7.20550273205028	-177.354166980456	-5.60354312501358	158.664310607526	-5.57724248460569	158.663120140259	-7.38296874880835	-176.219159541839	
2687500000	-7.20662198385664	-177.608982502942	-5.58738693821522	158.54938761912	-5.5850700483128	158.596066467837	-7.38344515097254	-176.429303334668	
2688000000	-7.2276710509948	-177.467242984468	-5.58560825144776	158.601374256311	-5.55100023886679	158.7367653361	-7.3600456284637	-176.450799947804	
2688500000	-7.26000835605425	-177.311090107717	-5.57920983853395	158.60409078223	-5.56685786990372	158.619171207919	-7.32942945209155	-176.51760757759	
2689000000	-7.29505195917548	-177.41568871366	-5.60008434329516	158.592716126229	-5.57730978620162	158.577339067423	-7.3287261587584	-176.69715631657	
2689500000	-7.2752847967423	-177.140666910812	-5.57569291872581	158.543588174735	-5.56479714291534	158.536137680436	-7.33331478588325	-176.746631765204	
2690000000	-7.30009374015729	-177.148447685177	-5.5854811138332	158.521261016712	-5.58311875551723	158.576391096165	-7.32311657468379	-176.781161975388	
2690500000	-7.33094159356592	-177.129588715212	-5.57084095607359	158.532429752841	-5.5937000910687	158.576887875311	-7.31950162398606	-176.966259556779	
2691000000	-7.34720550618463	-177.088602730584	-5.58222746588768	158.483680650914	-5.59557766863002	158.580142287789	-7.3290747892525	-176.899893148665	
2691500000	-7.34252858623246	-177.076655883941	-5.57298673691865	158.509188802705	-5.57928278499195	158.485595905325	-7.2938424613751	-177.224425355432	
2692000000	-7.36338869410846	-176.951849265632	-5.58606941369773	158.396255740251	-5.57380879842503	158.497224056286	-7.26983933555931	-177.098495955439	
2692500000	-7.37414283919482	-176.906930916264	-5.57248290978408	158.354057556119	-5.5718614039018	158.443304341372	-7.25799943537447	-177.155039717243	
2693000000	-7.3889219118268	-176.873934663816	-5.56748571143843	158.404059085281	-5.56315155744625	158.439573805841	-7.25699576388067	-177.247613373905	
2693500000	-7.43878146120416	-176.897950639051	-5.56984112846995	158.432754143489	-5.57427816904793	158.42185315575	-7.28359621205529	-177.432906028133	
2694000000	-7.45229529863615	-176.750621429606	-5.58913114776282	158.333086512925	-5.5702084845653	158.438940487173	-7.22527443054508	-177.554915858249	
2694500000	-7.44085443624174	-176.922849434051	-5.55622852322636	158.34157213904	-5.57588949539489	158.509354389825	-7.24169389310442	-177.639437016419	
2695000000	-7.4792318324848	-176.899004321684	-5.56863713383619	158.377416293534	-5.56812810028632	158.30496520542	-7.23385420272109	-177.770546875453	
2695500000	-7.48283629452775	-176.762319599221	-5.56085030164262	158.353825334236	-5.55930397934886	158.350086413988	-7.22559133400367	-177.874150323568	
2696000000	-7.52451028494038	-176.786769102013	-5.55023655689222	158.293284101259	-5.55688870187058	158.345358788204	-7.19203683585019	-177.936736204321	
2696500000	-7.52707285045294	-176.938796747083	-5.54856788893573	158.236428529116	-5.55150221040276	158.237242808659	-7.18775272322281	-178.065802659749	
2697000000	-7.55616142584158	-176.793707233315	-5.56561632720584	158.184655643805	-5.55051891490772	158.327959016357	-7.15737257880088	-178.046854707217	
2697500000	-7.57977647468989	-176.917407986095	-5.56145770930467	158.112148305258	-5.543952510432	158.282044289966	-7.15872673744326	-178.171978844217	
2698000000	-7.56782048946489	-176.888392483807	-5.55639234411702	158.138783330493	-5.5576996776099	158.276757340619	-7.17348913799213	-178.252854698293	
2698500000	-7.58699093458877	-176.759778345155	-5.53872221312212	158.113754829466	-5.54303346664135	158.217252534099	-7.13456728076495	-178.486897288206	
2699000000	-7.59955341884788	-176.776765086372	-5.53240426543084	158.096485073621	-5.54402520722801	158.117541809246	-7.11492304909919	-178.771865247103	
2699500000	-7.64857033927485	-177.142183814538	-5.53617335567617	158.058505294478	-5.55212858023642	158.122480331601	-7.10379369330862	-178.532070150059	
2700000000	-7.66066285085179	-177.001894696887	-5.53754093614603	158.078978181011	-5.55099059831239	158.160849644903	-7.09065192505342	-178.672946743842	
2700500000	-7.68731475815596	-176.968656549368	-5.52604871674052	158.081105308364	-5.52482646872695	158.050930421294	-7.08816560037573	-178.667825407623	
2701000000	-7.68934804574167	-176.959842071257	-5.53026254866433	157.995292544912	-5.52166515013845	158.087982677344	-7.06844084580912	-178.834914628118	
2701500000	-7.73209810047437	-177.188756007455	-5.54586607900946	157.98324774686	-5.534463016201	157.903152422154	-7.076357077168	-178.925767696608	
2702000000	-7.7552089494325	-177.141416819185	-5.53271242512051	158.009580702999	-5.51894217328143	157.934808594425	-7.0383305764848	-179.085682151396	
2702500000	-7.73297274721071	-177.236433365982	-5.53451709446882	157.887556634729	-5.50991208733969	157.928866178536	-7.02252006067167	-179.161263587336	
2703000000	-7.77913413867115	-177.289743114963	-5.52948361614533	157.787976638704	-5.51817405481588	157.874546672922	-7.03567695974308	-179.242842433717	
2703500000	-7.77302135776358	-177.355382398347	-5.51398566307756	157.852920317521	-5.51537391589317	157.807428388876	-6.99742158703233	-179.420442979111	
2704000000	-7.80897451571339	-177.576154821892	-5.51991157619806	157.780796939609	-5.53114667222385	157.76874535002	-7.00090134474487	-179.426959649716	
2704500000	-7.81002641543843	-177.551688949122	-5.51819437512448	157.769291394111	-5.51565920316825	157.676289524475	-6.97651884554588	-179.346752871981	
2705000000	-7.82048128227801	-177.840991270283	-5.51781251621171	157.596811310275	-5.5028710500126	157.711833687862	-6.97831891050383	-179.681509340938	
2705500000	-7.86799063351806	-177.71281979173	-5.51658277680184	157.676773186841	-5.50519497692623	157.753576645388	-6.96220487054971	-179.562746443758	
2706000000	-7.82978112990991	-177.725004317334	-5.49004071469047	157.659016271596	-5.49475834493937	157.688878020603	-6.93012510782891	-179.750498521838	
2706500000	-7.89829209431971	-178.193973154349	-5.503258604861	157.533328893279	-5.50873129364793	157.57067697548	-6.94429207758279	-179.775408637771	
2707000000	-7.88227009559892	-178.075283915415	-5.50821885294541	157.373392976305	-5.51934005105363	157.610884647835	-6.92479878807533	-179.726551880556	
2707500000	-7.92133705844051	-178.308664295002	-5.52475415707551	157.450571444492	-5.50340409365997	157.537558161383	-6.92735254445693	-179.974790974989	
2708000000	-7.90746551595892	-178.374649499808	-5.49960698822319	157.414874802313	-5.48671643333556	157.461035681469	-6.89870211203008	179.984274676967	
2708500000	-7.93527717287584	-178.580673847754	-5.49084757065534	157.442604750674	-5.48622088616727	157.399145370098	-6.88443953896101	179.843462882544	
2709000000	-7.97317437511102	-178.62832691903	-5.49374607674227	157.297340407031	-5.49791597450219	157.346024216002	-6.85647545009778	179.815678306012	
2709500000	-7.99051907619885	-178.945928871378	-5.4979678846487	157.148074086145	-5.48947001482889	157.212816363659	-6.8546274765216	179.738331319362	
2710000000	-7.99258496565623	-179.026302226236	-5.49446976429593	157.190687173026	-5.48177042052482	157.213697081773	-6.83682178620286	179.80563717828	
2710500000	-8.00778098104451	-179.107218794523	-5.49348715457891	157.12923125356	-5.48695745772866	157.19807698202	-6.83331172998068	179.789708313625	
2711000000	-8.01688435761102	-179.252005688194	-5.49170454253137	157.054670975222	-5.48558291750861	157.130399960511	-6.81242606308195	179.610321874601	
2711500000	-8.05227491779157	-179.522018051085	-5.48823654295833	157.015209732937	-5.4903774821709	157.061506535662	-6.79850839255291	179.574317762924	
2712000000	-8.05433472063364	-179.800267620473	-5.4890103661817	156.944748961924	-5.49107098956743	157.023008066829	-6.82345160822814	179.552951173751	
2712500000	-8.06801873079774	179.916605135635	-5.49806288039392	156.856037572116	-5.48611420936247	156.900379689286	-6.80646132422352	179.5089434012	
2713000000	-8.06355889768205	179.883344257255	-5.47815514934053	156.801162885176	-5.47855686963731	156.751305754237	-6.79814711071197	179.304109662156	
2713500000	-8.05858441955061	179.726341925081	-5.48078331821245	156.820463749383	-5.46737057767522	156.853358508466	-6.73476969499202	179.329463214082	
2714000000	-8.08930275680137	179.58561137734	-5.48547729597137	156.614518754446	-5.48104364422965	156.665500916696	-6.77051214337793	179.06359777748	
2714500000	-8.10286379526859	179.514540665313	-5.47947277163886	156.704199661941	-5.48742180882711	156.680087397456	-6.79024068204937	179.21287038343	
2715000000	-8.10366994008835	179.243864168128	-5.47454982817968	156.566643263339	-5.47975522099523	156.60593958692	-6.75375170520837	179.068356146045	
2715500000	-8.10613440639146	178.889068510844	-5.48139736780013	156.490152575635	-5.47166744424135	156.466914866752	-6.74247327198897	178.887102662784	
2716000000	-8.12263061404855	178.796591353254	-5.4823301926903	156.479815097527	-5.47041162335482	156.473614285136	-6.72444221921845	178.950057553292	
2716500000	-8.12346984528679	178.503182956171	-5.48437725360468	156.392123136892	-5.45080050462763	156.440692489556	-6.72449264522939	179.060492207771	
2717000000	-8.15597918494769	178.32374768834	-5.48113360985012	156.352446955144	-5.4791941298039	156.323412265392	-6.74226427700069	178.964465584436	
2717500000	-8.17350060023487	178.352717149164	-5.47849398644119	156.299381777692	-5.46561923361604	156.304374910069	-6.71694594743876	178.854176034011	
2718000000	-8.14821511233438	178.269210311034	-5.47830550731076	156.373305711001	-5.44994329316259	156.271457110093	-6.69660426257986	179.021138981056	
2718500000	-8.14160618613104	177.723247226174	-5.47127271739345	156.09843129043	-5.46841212835273	156.152500665137	-6.71595016287575	178.806682820413	
2719000000	-8.14931383905219	177.500596649459	-5.456795136433	156.135822503417	-5.47684444722054	156.120507594273	-6.68327218094636	178.92877681288	
2719500000	-8.15473604233466	177.428670117006	-5.46190503327608	156.139718266657	-5.45424222475075	156.07512566726	-6.68357870808955	178.747472825284	
2720000000	-8.17914853849416	177.136756503812	-5.48830561580449	155.944227329983	-5.46430631258931	155.930104352283	-6.67500091295126	178.722764662501	
2720500000	-8.17941898565507	176.772174515858	-5.4756959397903	155.891409277439	-5.46760634799625	155.85606599244	-6.68545534391641	178.606064304345	
2721000000	-8.15657591159188	176.550224720614	-5.46684528176872	155.808715227704	-5.45569332984508	155.806640384808	-6.6632893224526	178.673290903137	
2721500000	-8.17074132680123	176.449973525534	-5.46684362456912	155.711072978955	-5.45708594806749	155.783920939893	-6.65024744582716	178.570983404102	
2722000000	-8.13357553152018	175.848255860645	-5.45692718325899	155.541031823952	-5.46786026702018	155.616484241379	-6.65925668461268	178.656920201954	
2722500000	-8.14712674031816	175.915069911651	-5.46832370883969	155.623986390577	-5.45840188286335	155.697024563622	-6.66302327890536	178.697847220198	
2723000000	-8.16246559691327	175.84105043426	-5.45666996770799	155.614947103125	-5.46611310636338	155.622218541692	-6.614896751441	178.4542652863	
2723500000	-8.16967168240088	175.490205152185	-5.48482970526593	155.457032693007	-5.448906477317	155.4239690484	-6.62262437989683	178.562352773336	
2724000000	-8.21434195974061	175.31489092244	-5.4992040489262	155.319595618776	-5.45681435262166	155.411509223361	-6.6509776513744	178.558106460975	
2724500000	-8.1653246848801	175.057648891395	-5.47398805966903	155.266811972004	-5.4541969026614	155.443978609691	-6.62592173683979	178.50793555864	
2725000000	-8.15671053623933	174.618044435107	-5.46693524000346	155.147109218343	-5.46312082695413	155.176435054182	-6.62249297187857	178.341269794346	
2725500000	-8.11527061564141	174.642191438409	-5.45611682626508	155.213040552564	-5.4607830000188	155.154902540786	-6.63764633925107	178.389590834662	
2726000000	-8.13808833851977	174.482174880058	-5.48120742012286	155.059651512334	-5.46976009984562	155.077016230921	-6.66431828410931	178.318834037177	
2726500000	-8.13137151155507	174.165457519125	-5.4659403040176	155.010092989166	-5.43397577115788	155.042068053023	-6.59390932610709	178.484190559292	
2727000000	-8.10393113956655	173.931927850931	-5.46392190273204	154.996866703184	-5.45005722495137	154.980126421533	-6.61921813710678	178.491974211638	
2727500000	-8.1336914747097	173.955033987483	-5.4732128097548	154.96606638838	-5.47723826898404	154.944802788335	-6.64813015923826	178.558111250823	
2728000000	-8.09547281713091	173.482276142967	-5.46279248605222	154.849506899316	-5.47131925605394	154.811193556602	-6.63709664329683	178.516698417988	
2728500000	-8.12203851057064	173.1640878592	-5.47819268661499	154.615181847451	-5.46299504044682	154.691941364945	-6.64650864952956	178.413884935406	
2729000000	-8.09380965526089	173.262403822141	-5.47825997238027	154.743194229851	-5.47202904756931	154.841324081504	-6.64020710869055	178.746402899746	
2729500000	-8.08654014911966	172.932160314381	-5.48223800688331	154.648018886579	-5.47016823123341	154.675868417464	-6.64352251243049	178.523541829011	
2730000000	-8.09610354128763	172.598524616599	-5.48047759878604	154.560840917643	-5.47317623103253	154.534453953911	-6.636823723924	178.514373037176	
2730500000	-8.03087960297099	172.467973036729	-5.45789592206483	154.597208177676	-5.48260484533122	154.427443325796	-6.64890481135739	178.433157958745	
2731000000	-8.08032538442789	172.06391795079	-5.48430595872927	154.405835765365	-5.48565414348626	154.37307790657	-6.64411664936254	178.569189624675	
2731500000	-8.05777464341222	172.054581420078	-5.49205665966184	154.273320675669	-5.47548758822331	154.320272092321	-6.62724265428674	178.39021550371	
2732000000	-8.02377118930555	171.987914127908	-5.47685632662363	154.283015710872	-5.48533937788858	154.284731533865	-6.64658981224117	178.326606196682	
2732500000	-8.04340091629885	171.468307028168	-5.49603369367478	154.161772689236	-5.47164342532257	154.181532181006	-6.64929157542595	178.478669633279	
2733000000	-8.05025746914531	171.592432851806	-5.50515229337737	154.063155446231	-5.48427608825273	154.276936148599	-6.67420735161506	178.427592630859	
2733500000	-7.968037895417	171.152253876561	-5.46410557027334	154.04946765368	-5.50119928115985	154.014836215938	-6.6743887713533	178.389040914514	
2734000000	-7.95952050922122	171.057428476665	-5.48046201043132	154.01991702838	-5.47060112009727	153.928832525707	-6.63823858807808	178.429228334136	
2734500000	-8.00626768869352	170.800377653932	-5.48915620616631	153.841943830219	-5.47470346615022	153.859655286232	-6.61154330372225	178.446816529029	
2735000000	-7.9213615821042	170.698936348585	-5.48284223543234	153.874984417354	-5.49479634011285	153.865703693196	-6.67115840991714	178.272867878333	
2735500000	-7.97450016994282	170.709689049117	-5.50029732028505	153.770575795292	-5.49796975061131	153.768345182153	-6.64621393771871	178.515597377304	
2736000000	-7.92040377425764	170.227547202935	-5.50229201216193	153.601919504341	-5.51244825940586	153.691035906542	-6.67693592667054	178.536955671667	
2736500000	-7.90611498046832	170.043380248744	-5.51830265011313	153.563447495512	-5.48873483355482	153.6173352948	-6.68050239018368	178.550379697319	
2737000000	-7.92607032994872	170.218842297491	-5.51316778003409	153.559002334367	-5.51709822779313	153.485782399006	-6.71387050636877	178.29767798248	
2737500000	-7.8530712833575	169.731485810595	-5.48274548328896	153.457402014551	-5.50581273846299	153.524867271326	-6.67110146105647	178.530416900417	
2738000000	-7.87023956483075	169.696994688589	-5.51273958876254	153.440965899512	-5.51074456384339	153.56459270305	-6.68214478413958	178.737703915767	
2738500000	-7.85595371216554	169.585027562773	-5.52389387157678	153.364698644335	-5.51421492652505	153.425864705371	-6.70250225324011	178.581073971066	
2739000000	-7.8303952871014	169.389441682028	-5.50629297512514	153.298340378061	-5.5215226786118	153.342061364787	-6.71990539916093	178.492303363823	
2739500000	-7.82719674997138	169.212354656983	-5.51684133100447	153.254862199039	-5.49734781748899	153.341616133673	-6.69910274847227	178.712789099258	
2740000000	-7.80204685343824	169.037063886302	-5.52315543046319	153.22043819518	-5.51160810563472	153.256135476211	-6.70505006958669	178.774036519504	
2740500000	-7.76011848876957	168.929490422793	-5.51906731431144	153.169910927102	-5.51307637268498	153.088593404083	-6.70543308675034	178.782150914745	
2741000000	-7.75174581742599	168.982881860686	-5.52164043621441	153.087623992753	-5.53923728755454	153.075346804841	-6.75965254395427	178.606206763568	
2741500000	-7.7203389342536	168.911600405321	-5.5188010375205	153.035181787864	-5.52692885582428	153.058618745204	-6.74564990840852	178.802396394735	
2742000000	-7.76985105763313	168.590850253923	-5.55381304314775	152.950810074159	-5.52837850243018	153.047171090072	-6.73081287585865	178.91211626597	
2742500000	-7.71417425157428	168.420324510608	-5.54306983973107	152.81910316553	-5.51430184865155	152.864826052006	-6.70893351196414	178.714434081638	
2743000000	-7.69379040931932	168.128586273902	-5.53938020135002	152.846408241247	-5.54305427845571	152.84175722091	-6.76604369006094	178.866948764944	
2743500000	-7.67627790211752	168.391272880432	-5.54948499103528	152.796730312454	-5.54193854997049	152.826712384981	-6.78264626656908	178.881520516955	
2744000000	-7.63587402764538	168.167401420727	-5.55450514064755	152.77273849764	-5.54087890672581	152.754553323506	-6.77032749215203	178.813844127843	
2744500000	-7.60715298408272	168.169027122949	-5.5466290366974	152.6580829106	-5.54148806595649	152.700857583715	-6.76279855634242	178.78204138032	
2745000000	-7.59311700868716	168.271074045408	-5.55201390497235	152.633596760432	-5.55123002137662	152.645272974749	-6.77502616302808	178.807108182309	
2745500000	-7.59878697630545	167.949492579644	-5.55600894669079	152.540366932111	-5.57610627703226	152.577909995842	-6.80729921386385	178.718810182876	
2746000000	-7.55991520509724	168.032690076189	-5.56412753249757	152.514913952589	-5.5627567324297	152.565876442857	-6.78440997811034	178.933622127696	
2746500000	-7.53658465070903	167.787513780745	-5.55638542908648	152.504427236737	-5.54328182944021	152.570180418077	-6.77524188548097	178.93066960126	
2747000000	-7.55754691167684	167.8389851901	-5.58297482829281	152.398041625002	-5.5733732733117	152.454384601632	-6.83516277232316	178.925077429775	
2747500000	-7.50874235828331	167.64062382457	-5.579907188426	152.353038027087	-5.58364980794162	152.330759797647	-6.8714929940024	178.842164412617	
2748000000	-7.49536600089029	167.627420182528	-5.57299417799421	152.34245375138	-5.57334034988326	152.338367693934	-6.82541057570753	179.067483464189	
2748500000	-7.48878758116993	167.493221769173	-5.58562392045663	152.298622534908	-5.58765151777035	152.284489992247	-6.82879751312314	179.041662686261	
2749000000	-7.44711411561416	167.80417324715	-5.59219717921947	152.280407086654	-5.57683107134384	152.34174323026	-6.82651213483537	179.14725634712	
2749500000	-7.44149569892498	167.419070525744	-5.58801085461873	152.135818900112	-5.57250466404268	152.233482430969	-6.82909880374409	179.117603403512	
2750000000	-7.42071396128965	167.672007741516	-5.59106631218859	152.15511130195	-5.58952415363752	152.191813768967	-6.86500832488319	179.19613851222	
2750500000	-7.41119345559697	167.317163309988	-5.59604341570159	152.132825163785	-5.59009084436602	152.088613979695	-6.86151902893513	179.094500206816	
2751000000	-7.35056597703412	167.465907926446	-5.59807842614358	152.040580463258	-5.58793918823088	152.044373885751	-6.8680843323468	179.243551985733	
2751500000	-7.34356709171139	167.178492497443	-5.61039849658982	151.969440235916	-5.59130179702858	152.087913233049	-6.8717687077514	179.166585698706	
2752000000	-7.33548389617818	167.295379601947	-5.62445800557488	152.041331468018	-5.59825620861476	152.123384932932	-6.90632649023103	179.334068716232	
2752500000	-7.31311327631016	167.35424428755	-5.61176215893246	152.020502817118	-5.61749990544441	151.953362222466	-6.90279599490126	179.17414107227	
2753000000	-7.31715268252493	167.285056289177	-5.63793748347623	151.930717956179	-5.60919919168818	151.959076693411	-6.91180855347974	179.281275455095	
2753500000	-7.27628430151905	167.367151463449	-5.62121369324644	151.910811634226	-5.59920054614459	151.896812653163	-6.89125174034993	179.417976411669	
2754000000	-7.28646083962525	167.523921633753	-5.62605032912371	151.937701204267	-5.6099344848012	151.95139018347	-6.91774289766527	179.462967792106	
2754500000	-7.25411884033152	167.486006375618	-5.64057187517597	151.859589739584	-5.61975513297144	151.798668060179	-6.94171726448925	179.303399754226	
2755000000	-7.21812224990614	167.583340052289	-5.62631622734197	151.784438709402	-5.6211579923467	151.839255388835	-6.91364877140847	179.70779544675	
2755500000	-7.23700671050658	167.302607462287	-5.64755505809098	151.781881257322	-5.64111125895912	151.805802995769	-6.94465455579851	179.474579990607	
2756000000	-7.17187577031479	167.647440657573	-5.63740311071823	151.729381047088	-5.62940468506408	151.797069501554	-6.92608719188215	179.36685932635	
2756500000	-7.20266408035931	167.701356150371	-5.64081824661191	151.740504997813	-5.63241205437122	151.762947984421	-6.93930301648908	179.516994254776	
2757000000	-7.15731511841616	167.533329341277	-5.65243141989976	151.664234979231	-5.64138925004413	151.71101865075	-6.95626629158349	179.726619148803	
2757500000	-7.12062629715493	167.469463790416	-5.65473971035631	151.654491950681	-5.64481637590871	151.659849600295	-6.97125183845866	179.388290597343	
2758000000	-7.13194801247181	167.666733228245	-5.65204323109055	151.648338857102	-5.65236565198685	151.6391697086	-6.96494839179636	179.585655612695	
2758500000	-7.08961102898472	167.511720844	-5.668400425634	151.511694127232	-5.65591932294272	151.59573938548	-6.98870119352999	179.384867199613	
2759000000	-7.09187709544468	167.504759198572	-5.67609300932574	151.651058774271	-5.66454038192726	151.525545203152	-6.99442000618088	179.586269024611	
2759500000	-7.09481567543123	167.714064552332	-5.67343799539124	151.548580599585	-5.66070230901436	151.579416989137	-7.00530014304267	179.788413526812	
2760000000	-7.02983068332534	167.706399502742	-5.67889138532442	151.564912488538	-5.66970732975584	151.604596208705	-7.0101962559901	179.83992349024	
2760500000	-7.03006575211081	167.538263478114	-5.68885340736449	151.514973549133	-5.67317370100817	151.504078087141	-7.01751469046116	179.699805739507	
2761000000	-7.03113976013208	167.811610625325	-5.67646889864251	151.382936333096	-5.67277263746514	151.479045644616	-7.01239461523957	179.768380927348	
2761500000	-7.01582384653226	168.025973954665	-5.67498614098272	151.468028322734	-5.67757007668905	151.456203300348	-6.99189773742285	179.760147667149	
2762000000	-6.97501152368969	167.732348156594	-5.69015060794167	151.503816794654	-5.69215222044977	151.433254843632	-7.01263351291914	179.626907018165	
2762500000	-6.97895104588776	168.236677820493	-5.69368370202329	151.416017241479	-5.69061172666707	151.499284420468	-7.00113837474973	179.660577752369	
2763000000	-6.94495279997548	168.266213081194	-5.67653425494438	151.449947999209	-5.6771561424011	151.492928929182	-7.036314792155	179.946258221059	
2763500000	-6.9520445106899	168.35050130901	-5.69773849826893	151.4040093997	-5.67741901491099	151.382115447761	-7.03119148757343	179.754900984198	
2764000000	-6.92347063546953	168.100620219617	-5.6926749029261	151.293533709383	-5.69900218551284	151.328009023901	-7.03582943377477	179.894108490536	
2764500000	-6.90637565634374	168.498807721793	-5.69641525358602	151.355691629549	-5.69588106375326	151.393314938267	-7.04553606207707	179.678752352657	
2765000000	-6.88830573504126	168.41954879531	-5.71840421827514	151.283330517008	-5.69612956024074	151.316202348717	-7.031934772868	179.599783430222	
2765500000	-6.87942078194631	168.590234318216	-5.71248721332239	151.354779844125	-5.71025377927725	151.323781795063	-7.04245729137541	179.692982636198	
2766000000	-6.87422987346494	168.670291279443	-5.7260892019077	151.362355686895	-5.72692094488968	151.321194752283	-7.0516126428415	179.84768683494	
2766500000	-6.84264983187542	168.779430837843	-5.71533000355478	151.380118563862	-5.70630017049424	151.353410954171	-7.08580095819389	179.946638973795	
2767000000	-6.84234158150579	168.910580282885	-5.7116869100049	151.328435303319	-5.70001583940526	151.302751148299	-7.06079668486268	179.881387562259	
2767500000	-6.83690893058945	168.956163965781	-5.71897491879524	151.354350800718	-5.70512819534887	151.289809187896	-7.06390615880329	179.955930862718	
2768000000	-6.80806707872902	169.06351151872	-5.71622044804314	151.28353518817	-5.71126399615219	151.289215106307	-7.0364563871126	179.889509537305	
2768500000	-6.81398573734648	169.271323090741	-5.72923480987268	151.305512803049	-5.72648454185141	151.308401878156	-7.03846261308105	179.951342268869	
2769000000	-6.80794732666009	169.444014368628	-5.72377224512842	151.258212383087	-5.72209104533617	151.260272350015	-7.07825885033648	179.945113870562	
2769500000	-6.79858735925643	169.458597201517	-5.7113637332262	151.172714496727	-5.73553093971875	151.274456197874	-7.02833071976619	179.74869990111	
2770000000	-6.77863306179681	169.437501887235	-5.739941297953	151.238570213291	-5.69938469418305	151.210502719328	-7.04931331277026	-179.934865609542	
2770500000	-6.75043733737971	169.619599078514	-5.73046490205352	151.191433174766	-5.71837087117037	151.326207774747	-7.0551802669948	179.968522720188	
2771000000	-6.73327345387052	169.728667450911	-5.75297320141632	151.267431235264	-5.72237103071583	151.185637906092	-7.07950051428347	179.839601695555	
2771500000	-6.75438831144904	169.920280171478	-5.74216969307268	151.197173964897	-5.7373358704197	151.177225323993	-7.04414597767938	179.998304760699	
2772000000	-6.73050892121889	169.883728216245	-5.73020714660443	151.230593025112	-5.73193046644112	151.213113273553	-7.08130818470094	179.876205516243	
2772500000	-6.73611008951383	170.102285853747	-5.74631028972782	151.0559203925	-5.74731116011144	151.107949670236	-7.06039292832201	179.697296969539	
2773000000	-6.70166897409556	170.218127571626	-5.74197623465577	151.178345199934	-5.71579714805122	151.153531886677	-7.04421335483304	179.759586047833	
2773500000	-6.71163924910502	170.422278541146	-5.73679685701492	151.269192159366	-5.74739556373619	151.275102544884	-7.03282213168287	179.866160498361	
2774000000	-6.70626809320068	170.643440061661	-5.75737336788952	151.246636080118	-5.72653992137474	151.255903319855	-7.04387878082557	179.847558310919	
2774500000	-6.69378297627952	170.75672474825	-5.74369890800268	151.232408875376	-5.73426345368226	151.265587366973	-7.03193408889671	179.774030160014	
2775000000	-6.65199477500007	170.750130901167	-5.7647440471528	151.185643049391	-5.73072561235509	151.247942126006	-7.05992378664755	179.791265984168	
2775500000	-6.65908275861766	171.070420651991	-5.73627056918675	151.21851480145	-5.7130047399079	151.234729776283	-7.04836412992615	179.855741031878	
2776000000	-6.69447326705907	170.937034268055	-5.75912496046632	151.266537656099	-5.74246308327916	151.232814594867	-7.02325386503431	-179.900474684133	
2776500000	-6.66477686729291	171.213535369939	-5.74667246027542	151.195859774132	-5.73382874884228	151.225150831811	-7.034058458078	179.893669634711	
2777000000	-6.64762514724343	171.380535074122	-5.75234374033866	151.127159067372	-5.74820367354092	151.23459661445	-7.03484750165846	179.825690948772	
2777500000	-6.62922011201212	171.383527297874	-5.7352654976847	151.257337008143	-5.74317673018859	151.207891110657	-7.01931549510506	179.870989331378	
2778000000	-6.63017580961113	171.52183447835	-5.74899920599638	151.16676898598	-5.76069480288288	151.313957721471	-7.02587924980118	179.818574465678	
2778500000	-6.64898996731732	171.906103089303	-5.72833633968681	151.338506963803	-5.73563300588311	151.252364635058	-7.02057318761171	179.895511842559	
2779000000	-6.62643376799983	171.861437065769	-5.756780807652	151.198524879882	-5.73370680543012	151.184956068176	-7.02857145839448	179.733209227079	
2779500000	-6.6119269548945	172.178755772286	-5.73686393175778	151.223154724557	-5.75079598418067	151.295941943181	-7.02521453622353	179.811070236229	
2780000000	-6.61615858975923	172.253498971238	-5.72709069614166	151.291915346684	-5.73362621632043	151.197429728932	-6.992834129844	179.793587572445	
2780500000	-6.59688419949754	172.416772237979	-5.73547023027226	151.246554584813	-5.74688301600549	151.141516299711	-7.02785659851596	179.662098795193	
2781000000	-6.60679449359945	172.400651669714	-5.76586369611353	151.204687771102	-5.75866072171551	151.208236567564	-6.99846013930243	179.582347580323	
2781500000	-6.57991644678964	172.682825980909	-5.74791142624286	151.131867225349	-5.71915100633974	151.213535662242	-7.00761749308514	179.644143382486	
2782000000	-6.60066742347632	172.88073435395	-5.74917292724073	151.28934529255	-5.75527876060937	151.330188731331	-6.98747276619008	179.802742250124	
2782500000	-6.59051529557363	172.823503194745	-5.74795111968389	151.290264906143	-5.7517797687635	151.157406942462	-6.98669916020473	179.667450945489	
2783000000	-6.585133429292	173.21687087588	-5.74033386105507	151.249135084555	-5.74577549142902	151.324281889921	-6.97700940257467	179.550321303435	
2783500000	-6.60341646466888	173.265095809446	-5.73158886346579	151.283985517133	-5.72546878198945	151.152485819001	-6.94542068366238	179.804986662742	
2784000000	-6.56140477368263	173.372705269273	-5.74415989245277	151.126225377695	-5.70866856577465	151.309248043946	-6.95401637276293	179.530670937627	
2784500000	-6.57308819721904	173.532428348273	-5.75101967288717	151.252958776264	-5.74414451088707	151.275964696988	-6.96862862706437	179.594496746694	
2785000000	-6.59313711088654	173.538673805282	-5.73846037298845	151.128829199438	-5.74229182161973	151.221024481441	-6.94691598294285	179.323649367217	
2785500000	-6.57307318340822	173.887329533954	-5.72753056950093	151.204614334997	-5.72198646720052	151.149613337968	-6.92268310776187	179.442837325437	
2786000000	-6.58833758979556	174.068822477001	-5.72660305244093	151.249332968609	-5.72817654509682	151.285932701857	-6.91860684250445	179.312627261412	
2786500000	-6.57885718839894	174.196878938897	-5.73625433062993	151.171282960934	-5.72449948099465	151.310576293589	-6.90825599797236	179.284279062388	
2787000000	-6.59301611940715	174.185143210479	-5.74535626356844	151.17219580495	-5.73519334386086	151.176472462911	-6.93290333155628	179.19384821819	
2787500000	-6.58273074677952	174.359882801344	-5.72542957840617	151.23830999881	-5.70846746519162	151.265984912175	-6.91253587434785	179.382886272481	
2788000000	-6.5835531887053	174.428420063475	-5.74672133682247	151.156504494501	-5.7228688418868	151.160518888757	-6.9115231646094	179.153106134509	
2788500000	-6.59147487383056	174.653115150901	-5.73781492798233	151.221943547668	-5.74183654887583	151.186066201022	-6.91751178984058	179.322542035326	
2789000000	-6.5802137166649	174.81683254556	-5.73615590317972	151.227365463882	-5.72507499776112	151.326975335116	-6.89181760248477	179.271965686981	
2789500000	-6.57725111808056	174.989490581586	-5.73695776726678	151.179521531966	-5.70753495675652	151.279434801426	-6.87827457252538	179.238218580973	
2790000000	-6.61899877653965	174.891223321225	-5.72936470959622	151.204203829382	-5.72344594689323	151.233689547957	-6.85198974638952	179.118920413514	
2790500000	-6.59475829797422	175.03976150962	-5.73091247958931	151.127279126307	-5.73050810874051	151.204324599884	-6.86391192069203	179.176972205439	
2791000000	-6.58629638209417	175.414585355729	-5.7060259046435	151.339324220808	-5.72390840522039	151.321983663048	-6.85413421376508	179.355667492267	
2791500000	-6.63641725065585	175.330121749682	-5.72354877478279	151.190137796364	-5.72456952867363	151.204558730153	-6.83331286052776	178.968256522649	
2792000000	-6.60568316599711	175.544466977778	-5.71797703172894	151.194466433771	-5.70685032933404	151.231880955401	-6.84423457376582	178.857882520098	
2792500000	-6.62463989395406	175.689842807575	-5.73023518687054	151.189448793139	-5.7046034064321	151.276229569342	-6.83652164230961	179.06017918089	
2793000000	-6.63571772500747	175.83307663956	-5.72677557999276	151.146055857995	-5.7051934309541	151.248189853203	-6.8240011677861	178.839593856695	
2793500000	-6.59834793721371	175.788906598591	-5.69961823670472	151.156730343845	-5.70164383756864	151.227925303361	-6.79131858321536	178.799547864268	
2794000000	-6.62035508392194	175.93601343409	-5.71025032036131	151.055569949442	-5.69275562059375	151.155533939016	-6.77353910067457	178.79569941057	
2794500000	-6.61588397403133	176.084864147482	-5.68146479195862	151.176892924014	-5.70056016634755	151.209490525569	-6.76836157305569	178.835085993797	
2795000000	-6.65364723843563	176.280831532304	-5.69816851439893	151.132935406352	-5.6962638786335	151.12221752023	-6.7486943743985	178.569921701277	
2795500000	-6.64649563066549	176.3137324095	-5.69779453474836	151.214131339507	-5.6889810703125	151.186827622426	-6.75065740507762	178.70407197514	
2796000000	-6.66796929125498	176.441642462807	-5.6935229439833	151.097539827629	-5.68270725097083	151.119112211736	-6.73745890404783	178.622958228069	
2796500000	-6.67331740230083	176.549553172032	-5.70642904113695	151.284383877802	-5.69303834752015	151.262849075407	-6.7453909295335	178.839200004239	
2797000000	-6.68162611336845	176.635168974384	-5.68984286977335	151.131267301048	-5.68320650579163	151.16444731644	-6.73429109231909	178.579716883439	
2797500000	-6.65009782925744	176.771619031128	-5.68372606988467	151.11000199088	-5.68480111070369	151.114346876376	-6.73114658845025	178.678796883296	
2798000000	-6.67887487175436	176.836994142785	-5.67977235756818	151.04423925502	-5.65671136596991	151.085648908273	-6.71545129101694	178.541076360889	
2798500000	-6.6946530230559	176.972434848114	-5.67483075760237	151.049422658268	-5.67125595567469	151.102554088553	-6.6812678070181	178.470590539783	
2799000000	-6.7176316774508	177.046244422556	-5.68353229628267	151.126698542214	-5.67233417955965	151.10380055281	-6.6938094616649	178.463963135289	
2799500000	-6.72633117691606	177.026046495575	-5.69041821251566	150.985652886184	-5.6703843990556	151.211214836001	-6.69984353587726	178.405853947842	
2800000000	-6.71630101181633	177.243266425319	-5.67655187390982	151.114417635173	-5.66996696109221	151.112412737284	-6.65633489123788	178.294127665315	
2800500000	-6.74787694686428	177.231730877773	-5.66995269037922	151.01090962639	-5.66026071079738	151.035552543298	-6.66523798773211	178.357644477259	
2801000000	-6.74908622780561	177.597791268821	-5.66327550572872	151.06959517911	-5.66050093977215	151.007513946315	-6.64818119869445	178.236254046815	
2801500000	-6.76402153627224	177.52797482282	-5.67980623602579	151.01208150493	-5.65636755933856	151.025788349762	-6.66432674449388	178.478687826229	
2802000000	-6.76515208378723	177.702392402122	-5.65096390573197	150.917205958428	-5.65320451819308	151.047144219492	-6.62106119133012	178.105570706199	
2802500000	-6.80153866570121	177.455943884042	-5.66440408512797	151.006189913242	-5.65268714873655	150.988165807658	-6.63203775182628	178.203928989203	
2803000000	-6.78319409267862	177.597402470822	-5.65770182036936	150.936572793546	-5.64452875539185	150.972074073359	-6.60654434836403	178.181482383287	
2803500000	-6.81957925512259	177.659119480849	-5.66929492865196	150.925629799155	-5.64345034166081	150.917728176611	-6.59547267691653	178.089103493926	
2804000000	-6.8375970962756	177.501366427397	-5.64397666492864	150.867674979968	-5.64179386059075	150.898546295013	-6.59077380412487	178.113148160076	
2804500000	-6.81727827325771	177.64077657557	-5.63123111839392	150.819479696782	-5.64532511571529	150.890451226498	-6.59799400307072	177.966106864199	
2805000000	-6.83229030790843	178.078669500089	-5.63571398169879	150.869142180396	-5.6346311150308	150.888811585361	-6.57378542164395	177.959481494433	
2805500000	-6.83654790614358	177.91165304974	-5.61386859234836	150.796983386281	-5.62437986659237	150.821881743925	-6.54673534804908	177.93121239168	
2806000000	-6.85314832543957	177.74713629374	-5.62823889929776	150.774676439278	-5.62687853864452	150.740155549934	-6.56514359400078	177.939444901427	
2806500000	-6.90415625617686	177.812939122612	-5.6319333790394	150.737788707885	-5.63617632733914	150.745281004398	-6.55348845170517	177.900851008672	
2807000000	-6.86138128758538	178.03247532266	-5.61458215001043	150.734467175322	-5.61747821907707	150.709946569344	-6.52982633599392	177.934371786953	
2807500000	-6.90046695576834	177.877278256202	-5.62620644005813	150.652837429361	-5.61862673037847	150.696871235899	-6.52080204418255	177.770716234609	
2808000000	-6.91894510356247	177.938170864563	-5.61975271544714	150.664916138225	-5.61634761157478	150.614697555383	-6.5246968775178	177.698814297771	
2808500000	-6.93663220290412	178.176586190004	-5.62422587914424	150.650303022814	-5.62258150882984	150.630957063724	-6.53390996465262	177.744113882476	
2809000000	-6.94833693138373	177.871888992577	-5.61851631702848	150.562135107277	-5.60966841268717	150.522284661183	-6.49981555308315	177.705719533959	
2809500000	-6.94999238482831	177.98379286152	-5.60246334946949	150.503336889209	-5.60378292997266	150.51126093149	-6.49314530435856	177.405698309256	
2810000000	-6.98005018852363	177.793670009903	-5.61479926781836	150.488317251716	-5.61164835799326	150.49988533534	-6.52183108108801	177.237754090439	
2810500000	-7.04370189352779	177.913907737066	-5.6275307760489	150.374229108531	-5.61812431745791	150.404447894951	-6.46637348600801	177.406649807232	
2811000000	-7.02042880651554	178.037306381537	-5.59459879132479	150.433220133801	-5.59519226304585	150.482022301251	-6.48589321997744	177.660341007431	
2811500000	-7.02084449231289	177.910618595168	-5.5981646425305	150.248027019235	-5.5881537422944	150.347307544206	-6.46354418472391	177.334347895008	
2812000000	-7.04022031285356	177.872578075559	-5.60044842452366	150.276503309096	-5.59595668901158	150.365340497197	-6.50073693961343	177.34569470984	
2812500000	-7.0456695205738	177.901919055193	-5.59437727495276	150.322845522383	-5.58759226813466	150.290680145515	-6.4485684140054	177.409205372803	
2813000000	-7.07566343478085	177.79421976484	-5.59068019030255	150.19726648732	-5.57860066302634	150.25580481117	-6.40962655403573	177.392921796452	
2813500000	-7.0994623944466	177.771704716553	-5.58548600495306	150.24224782715	-5.59252949882734	150.263577497287	-6.44565698630101	177.362908687721	
2814000000	-7.0879634152409	178.040448055855	-5.57835170579172	150.259540182545	-5.55349623992202	150.192861383782	-6.41828218072503	177.257074527996	
2814500000	-7.08921890505474	177.720630346638	-5.56289730286375	150.134939594446	-5.55976076831501	150.137307538683	-6.43937961339426	177.309049733756	
2815000000	-7.14473282396271	177.679246927928	-5.58453460595065	150.051491389042	-5.56807333689229	150.035407122927	-6.43863239484344	177.05003229196	
2815500000	-7.15221485154569	177.505792455998	-5.56446102105725	149.99932358559	-5.5773236650738	150.087061117774	-6.42163272130985	177.227123320489	
2816000000	-7.18030711597771	177.595255627685	-5.57191515123869	149.887178349694	-5.57621654510266	150.036265825195	-6.43118065872655	177.023424270695	
2816500000	-7.1685324830448	177.31401461993	-5.56805145932515	149.783660993929	-5.55762286898068	149.929684207482	-6.40241636011043	176.991956040112	
2817000000	-7.194233548494	177.572997324278	-5.56291881373633	149.845286618505	-5.57677286624672	149.814961335018	-6.43791811755756	176.847200603901	
2817500000	-7.2016285542361	177.373406848745	-5.55300727103065	149.858635230035	-5.55831806366539	149.922508728552	-6.4355196314986	177.162761247274	
2818000000	-7.24333339608982	177.37238843882	-5.55204693627394	149.7687574854	-5.54087022090542	149.817620419404	-6.39619613469436	176.888584091307	
2818500000	-7.22957167832683	177.421480038668	-5.548518318018	149.812266447383	-5.55753817359057	149.78993854515	-6.39455486279903	176.936333286655	
2819000000	-7.27131195265558	177.00486203684	-5.56896673986642	149.570773587752	-5.5526942318133	149.507378278025	-6.42088588042318	176.71015926983	
2819500000	-7.3039278157797	177.089805531465	-5.56893477918272	149.520289850621	-5.55857620559116	149.621794984123	-6.41089826092709	176.94362986217	
2820000000	-7.30401410907122	177.169355731637	-5.56758150246236	149.483887446928	-5.55057550462754	149.469853060975	-6.40156917515659	176.689625559803	
2820500000	-7.29259665649308	176.887847571066	-5.54309295919887	149.46742864533	-5.546291733679	149.520371126728	-6.38202218746537	176.825231622504	
2821000000	-7.32072820736971	176.693812997845	-5.55450513409458	149.37769427729	-5.53328910438764	149.327642054204	-6.35206095138428	176.550364559433	
2821500000	-7.26127642626443	176.658893983025	-5.52277884593355	149.384303365862	-5.53854247989432	149.249164905612	-6.40469366352706	176.440589382708	
2822000000	-7.35716401423507	176.622604009908	-5.55959733574485	149.237218914654	-5.53905659045769	149.235230615107	-6.38896846458843	176.412074882877	
2822500000	-7.37829176767622	176.510285246683	-5.55964612156358	149.149513682733	-5.52945823374071	149.13038867768	-6.38512347635813	176.457380332648	
2823000000	-7.38699318617819	176.238741535623	-5.53313201970569	149.183515218631	-5.54115569101707	149.230640282749	-6.37914772690192	176.517124098043	
2823500000	-7.43319652174394	176.163071512234	-5.56350065791329	149.037306538829	-5.54199405829713	149.163359298752	-6.40696883238631	176.526994808513	
2824000000	-7.43444972755834	176.200414687248	-5.54662275168944	149.082770654321	-5.53641983040735	149.027668153063	-6.38007896319105	176.644133816453	
2824500000	-7.41416312999096	175.884996963029	-5.543042765723	148.955138194122	-5.53559840126168	148.983073207012	-6.42789864629514	176.349211855459	
2825000000	-7.43096701836544	176.046170277976	-5.54059466555358	149.04747232569	-5.53518632581732	148.979028167391	-6.39582930339698	176.461924313207	
2825500000	-7.45557680821187	175.747700106985	-5.53966626372596	148.859753340331	-5.55152710407695	148.849041217338	-6.42855614674283	176.186908685175	
2826000000	-7.47664206423066	175.361787643391	-5.55201124667958	148.694578929462	-5.53222705161868	148.720065608209	-6.41455758108046	176.298888992613	
2826500000	-7.49658270952154	175.427612888758	-5.54458055110951	148.66882747852	-5.54101190045953	148.804194875785	-6.39475532315162	176.287476697111	
2827000000	-7.48443580592774	175.249056768587	-5.54427980436717	148.617829089424	-5.5391670468037	148.697526475135	-6.40696594686033	176.330332755257	
2827500000	-7.50588871093007	174.942112279763	-5.54880368187738	148.572243886204	-5.54130377873755	148.480280407146	-6.42198494035424	176.1739866552	
2828000000	-7.53522498742035	174.949053188454	-5.53971372646196	148.526842390304	-5.54564187801335	148.486930318762	-6.43552664137916	176.175307394488	
2828500000	-7.5267472127399	174.649265667217	-5.53663000435358	148.481882243604	-5.53507400900508	148.460994675277	-6.40532275575853	176.231594902237	
2829000000	-7.57440105248883	174.559079698198	-5.55684833353362	148.396358342062	-5.51641051369022	148.392679235726	-6.3972014676834	176.079325860584	
2829500000	-7.56724651444426	174.436355503993	-5.53119027668819	148.269283933203	-5.5207739722208	148.403610326207	-6.39932460585635	176.081276162082	
2830000000	-7.53021637516141	174.338304383805	-5.52552219913014	148.303278140696	-5.54704968378478	148.255742237742	-6.41999306945853	176.063906759345	
2830500000	-7.58375588197218	174.234564325707	-5.5473171333396	148.192318590809	-5.5104684122663	148.099071006807	-6.39464054539083	175.845172658344	
2831000000	-7.58829101261368	173.734724670835	-5.53960570110974	148.094032856009	-5.53035672191097	148.061758424283	-6.44621934587936	176.000421544693	
2831500000	-7.58659179053397	173.751126375568	-5.52615703915631	148.086416995029	-5.53261907025029	148.058769888537	-6.4277050070419	175.99261334223	
2832000000	-7.63982947306943	173.415840210076	-5.56443665600965	147.997646793375	-5.51946498077554	148.045254236273	-6.42478822577456	176.073210089906	
2832500000	-7.6572806561109	173.107969923131	-5.54013810310066	147.960747501866	-5.54064659095868	147.925562633156	-6.45112142933736	176.044539923254	
2833000000	-7.62039796713598	173.03690071223	-5.54556529879846	147.84092998304	-5.5315586582381	147.847519314511	-6.47656562380674	175.986555534175	
2833500000	-7.62735925412114	172.926046558125	-5.54293791909583	147.798411052676	-5.53530264020868	147.735101299674	-6.46300252407455	175.94083733721	
2834000000	-7.67450741642429	172.73829697065	-5.56430085177352	147.664858625663	-5.52866465701811	147.617868106367	-6.42810950609488	175.643488719278	
2834500000	-7.63372955544684	172.588301585208	-5.54812516867568	147.606804230432	-5.53235925472686	147.591238058359	-6.47923470695495	175.49593145674	
2835000000	-7.69940547581655	172.542848176875	-5.56246126682569	147.525287232383	-5.53201473310052	147.585693530565	-6.4538086126513	175.81120439934	
2835500000	-7.6896273837715	172.104280382741	-5.55017520527492	147.407955635176	-5.54652385926893	147.542619678669	-6.47828894339198	175.784613574924	
2836000000	-7.6375478653801	172.041484274478	-5.54889468229348	147.362597340301	-5.54168660184366	147.446774398041	-6.51669288793348	175.693660598751	
2836500000	-7.64881601938184	171.552331958886	-5.52149402731078	147.291585223504	-5.5559181714421	147.373404291836	-6.49557746697907	175.709172298215	
2837000000	-7.6864896638887	171.461758151744	-5.56073920192401	147.303005266482	-5.56463343683274	147.264352743359	-6.54988335461887	175.636323589985	
2837500000	-7.68797492922313	171.212680552475	-5.55197956966409	147.268358476445	-5.55164985576562	147.137306560765	-6.51727135369182	175.779254513372	
2838000000	-7.69586554989649	170.854439130621	-5.55805769373204	147.073611914049	-5.54110683313901	147.121464968705	-6.49475270262051	175.636233994573	
2838500000	-7.66345046142526	171.061118627212	-5.56370050835554	146.987883870093	-5.54255256404918	147.067617648946	-6.50836959683117	175.529816101583	
2839000000	-7.68793586834081	170.765203491684	-5.57140519742311	146.996074990662	-5.54756750135548	146.996384214984	-6.50154716128627	175.605816673232	
2839500000	-7.68186529582137	170.422386281131	-5.56354760706561	146.889704278023	-5.54987362300922	146.843040651352	-6.50875312544732	175.406547869823	
2840000000	-7.67927162344636	170.360948072288	-5.57158111364511	146.885451870344	-5.55852115738069	146.902187932858	-6.55096333704539	175.559134373493	
2840500000	-7.6938701615834	170.16868160824	-5.56332738942952	146.842734265912	-5.56098686669653	146.698123859048	-6.55326815022416	175.317818054588	
2841000000	-7.69533759074799	169.73563272089	-5.56494427876001	146.665909197262	-5.55154862978323	146.654665044185	-6.54977845730668	175.469233399957	
2841500000	-7.73499992522735	169.787828079987	-5.57826697271665	146.571498228211	-5.56315366519036	146.649661312106	-6.539793659857	175.51948350451	
2842000000	-7.73463329195432	169.527380134326	-5.59683869822182	146.532375184098	-5.56702089762167	146.557103600892	-6.56652040370565	175.290899849391	
2842500000	-7.68406048104648	169.558518205121	-5.59076797206547	146.481888758832	-5.56616511406938	146.510943291643	-6.54883525510014	175.358735586763	
2843000000	-7.69727388733535	169.250031169738	-5.59010695644419	146.289634197923	-5.58928264954572	146.38156026248	-6.61652728413122	175.1801925642	
2843500000	-7.70620006257018	169.078973766684	-5.60297142870604	146.35226185639	-5.5767163105283	146.375734820298	-6.59152381401177	175.192329936215	
2844000000	-7.72987569150412	168.460589409904	-5.58913163381845	146.282856434244	-5.58647801107113	146.172195517892	-6.58972165119961	175.273268706351	
2844500000	-7.703266394816	168.467765183027	-5.61138413564664	146.213902948133	-5.58686976374413	146.21463108039	-6.60709036576297	175.334549171939	
2845000000	-7.68159584585123	168.092860933298	-5.6081442217647	146.178270443082	-5.59433860615518	146.149918243972	-6.62498897324123	175.374994300881	
2845500000	-7.66446484327246	168.182610331184	-5.60629177900465	146.027492036022	-5.58902631431606	146.167092714469	-6.64465400058244	175.313252896818	
2846000000	-7.65744848547334	168.199653974082	-5.60668864203199	145.99302021953	-5.59604864082185	146.022640063904	-6.63563437249679	175.179199874104	
2846500000	-7.63726582409056	167.653799181155	-5.60434881377446	145.877190772935	-5.60331040725777	145.97336131717	-6.64464525371175	175.147860387695	
2847000000	-7.64321007478294	167.66916143327	-5.62186203027511	145.881032668119	-5.60151539218316	145.92974939906	-6.63529098502742	174.963211512583	
2847500000	-7.642457941236	167.273304612061	-5.61167014727917	145.77261624856	-5.60766635586314	145.806952023513	-6.63189207845344	175.104348027785	
2848000000	-7.64031853643948	167.096399769056	-5.62204187420641	145.717326614749	-5.60988144093835	145.761809411369	-6.65379505083801	175.2326931218	
2848500000	-7.62570935298227	167.091588044356	-5.61949448439707	145.645865659271	-5.61453182726628	145.681159993452	-6.66644523578895	175.145855119476	
2849000000	-7.61635898995253	166.761388276958	-5.61546065853869	145.603448951036	-5.63036155220966	145.522836246042	-6.64698378191025	175.012378426035	
2849500000	-7.5905031812416	166.596482077496	-5.63336492388027	145.416030685265	-5.63249097106532	145.516004813946	-6.68178886101534	174.997697212365	
2850000000	-7.58291169699521	166.531602437412	-5.63317625991402	145.58382098414	-5.6260344742745	145.478916619602	-6.68009518142871	175.144279089073	
2850500000	-7.59801383168544	166.296468496702	-5.62527525509608	145.457871684217	-5.63948275988168	145.436164573644	-6.68436281584527	175.050751339033	
2851000000	-7.59061678885761	166.049852324632	-5.65413669939061	145.395387294925	-5.63570354747274	145.390284965548	-6.72702572369956	175.004280180553	
2851500000	-7.55518095134073	166.160495912217	-5.64181739020637	145.373395427901	-5.63708267021184	145.385176836539	-6.69932350922523	175.033895470383	
2852000000	-7.51882691967929	165.909228598837	-5.64335894394128	145.269879280696	-5.63883244037918	145.2114946992	-6.70648957392533	175.107829538412	
2852500000	-7.52499053409116	165.732968477387	-5.65178542659979	145.230972555405	-5.65362716583788	145.218327061917	-6.70268609440005	175.000495993651	
2853000000	-7.5198906950118	165.543770086776	-5.65089251942308	145.072480122586	-5.64934632898578	145.105991500116	-6.71530894938499	175.056902008509	
2853500000	-7.51505097786636	165.364630648459	-5.66900833536904	145.113983352106	-5.65008479841206	145.048791813167	-6.72652637971302	174.914659910156	
2854000000	-7.47994567619771	165.207867818995	-5.65170377868201	144.978650175421	-5.65736905697316	145.078143711881	-6.73029132693395	174.950748206258	
2854500000	-7.47855139796831	165.063372599685	-5.66849053977521	144.991521559583	-5.66362702248221	144.980883547263	-6.75110806285714	175.093615714318	
2855000000	-7.44269214802341	165.035123288028	-5.67913346312891	144.902688747858	-5.6652183433553	144.929141077508	-6.73526657720766	175.01974637482	
2855500000	-7.43208311965411	164.918300455689	-5.68982325600676	144.809593637715	-5.67227162901607	144.872093119512	-6.76222362720058	174.817220669262	
2856000000	-7.43023528681378	164.945082238823	-5.6700667425865	144.833580491876	-5.68348806171762	144.816310758463	-6.72741545080125	174.875237095187	
2856500000	-7.41597059613516	164.57328639818	-5.68661634929804	144.659110506579	-5.68024563057826	144.785941471323	-6.74989466446466	174.77840807694	
2857000000	-7.37993851852939	164.574953778458	-5.69331964274901	144.857657073326	-5.69118121072389	144.805656529565	-6.7444989057315	175.001232240003	
2857500000	-7.37460116580608	164.56666189738	-5.69575051541525	144.664299315324	-5.67655281367774	144.66720439293	-6.7482920004012	174.761538078928	
2858000000	-7.3702218303927	164.566771319301	-5.69105115209894	144.595080535217	-5.68037183146561	144.717407695599	-6.75442039357333	174.873596683827	
2858500000	-7.35379162531605	164.241782057908	-5.7076508435435	144.4427189576	-5.70001686423998	144.596987802095	-6.77274387020793	174.8259487869	
2859000000	-7.3200392883588	164.171883233232	-5.7029506258307	144.465004186775	-5.70042630618515	144.539897293687	-6.77460309842588	174.850330866447	
2859500000	-7.31635665919276	163.99261050566	-5.71820717680346	144.516777168832	-5.70677113218593	144.437719053171	-6.76297123376541	174.670468357271	
2860000000	-7.26886737610583	164.134099093244	-5.71378133263628	144.451172788343	-5.69385001312078	144.46954948295	-6.76484516501007	174.845207397708	
2860500000	-7.23761622130225	163.961678050331	-5.72013792858961	144.350668762515	-5.70978899168092	144.403442394486	-6.78160727356011	174.779031569535	
2861000000	-7.2252299096996	164.081755582744	-5.71300109625473	144.313748319098	-5.70494783336291	144.369887509667	-6.76552892195092	174.671755420054	
2861500000	-7.23525384928918	164.0600428762	-5.73196738810764	144.250044159544	-5.71643320352847	144.406780642949	-6.77016364188525	174.758193768265	
2862000000	-7.22317341322224	163.800811128797	-5.70999085351179	144.256676012506	-5.74273562382849	144.285472940358	-6.75093787064941	174.819842636067	
2862500000	-7.16940363907742	163.736670541659	-5.72948252280613	144.316351879294	-5.72157140788392	144.277896249857	-6.77833902331768	174.889258731627	
2863000000	-7.15443385231795	163.626812403518	-5.74083868410351	144.110966740753	-5.72390221737579	144.283324965423	-6.75899669972962	174.830905541811	
2863500000	-7.12258884167052	163.808926808755	-5.75596636527259	144.192122652831	-5.7304979240248	144.273898566121	-6.80053139062606	174.850087671612	
2864000000	-7.12357737681184	163.712330414179	-5.74104112821185	144.078808950699	-5.74786022596339	144.139979052002	-6.78444333267761	174.804219778159	
2864500000	-7.08515961846107	163.589597057039	-5.7504295660806	144.011034816817	-5.74949110289387	144.105054042763	-6.77652576951004	174.816449423818	
2865000000	-7.08688269207266	163.486601324199	-5.75816169927004	144.081300673963	-5.74169748881352	144.143858268839	-6.75516548929029	174.94661389556	
2865500000	-7.04707116291642	163.539314369666	-5.76071543175925	144.082767371561	-5.76241382984236	144.018688796781	-6.78846861736597	174.79183762727	
2866000000	-7.03616144868625	163.544227626735	-5.76478692198088	144.034576532261	-5.74007099270005	144.092998960709	-6.79557773252063	174.816496235578	
2866500000	-6.98110625970739	163.419984299943	-5.76637930289111	143.905231780691	-5.75814248481993	144.010919757383	-6.77391490711927	174.868246801813	
2867000000	-7.00187238903243	163.464840449561	-5.77501099948703	143.9265354587	-5.76801652804759	143.991550835857	-6.77214991828861	174.82653410448	
2867500000	-6.96987713276536	163.550573533992	-5.77374504288463	143.897482928558	-5.75539391116564	143.849072013182	-6.73700067434669	174.821771105675	
2868000000	-6.96187685650624	163.625961483075	-5.75455187734705	143.803443487793	-5.76685706526546	143.862029278041	-6.74832290773487	174.856794630853	
2868500000	-6.92974156743143	163.597790312264	-5.76910023856988	143.890517605665	-5.77525817329939	143.92046883325	-6.74845991951786	174.856139889986	
2869000000	-6.89591141360497	163.737922772329	-5.77530617596992	143.864952545667	-5.76026107163529	144.011715489536	-6.75351536847296	174.832017762144	
2869500000	-6.88335094190368	163.606958085716	-5.76378260548544	143.841766030191	-5.76998773593577	143.886758508949	-6.75620088780944	174.953053442919	
2870000000	-6.85186341235218	163.856296489672	-5.77641248861916	143.783376682167	-5.78663344233354	143.911685423557	-6.74560086513306	174.759764854493	
2870500000	-6.83113989028356	163.719086962096	-5.78189373015974	143.670743979844	-5.78936585585143	143.810819391022	-6.75647376269211	174.916822447727	
2871000000	-6.8209207918359	163.78498039483	-5.7918296325877	143.691031602875	-5.7638732128998	143.773685862774	-6.73568156814128	174.846068360828	
2871500000	-6.78995880185101	163.745223577516	-5.78372967997347	143.818767624192	-5.77813960018891	143.685279480856	-6.74129456535979	174.912701030246	
2872000000	-6.77239304953217	163.810701252567	-5.78632763158708	143.616127737804	-5.78571047292122	143.653558141583	-6.73927385518609	174.87313690104	
2872500000	-6.75126678805969	164.001398042599	-5.79683828789121	143.634806042646	-5.76824943310577	143.70191381026	-6.7145588662362	174.877924654523	
2873000000	-6.74664952375791	163.959559589204	-5.80439250256682	143.702881934584	-5.80608090786536	143.729676687743	-6.7357217884288	174.945167564934	
2873500000	-6.71258822596328	164.166005657469	-5.7824397521095	143.67336196182	-5.80343149316387	143.668061452567	-6.68526391655754	174.996450120275	
2874000000	-6.71872258658959	164.069077191987	-5.77937170768952	143.534486640692	-5.78714981390204	143.624303487874	-6.6837635822974	175.057275046873	
2874500000	-6.68320316205578	164.156724715212	-5.80884744682787	143.729282335627	-5.7981328612563	143.645215619662	-6.71425412232825	175.054037512646	
2875000000	-6.67981913620747	164.308754354707	-5.80589646891617	143.667928750458	-5.80635041927281	143.748874707033	-6.71584498723008	174.989911656978	
2875500000	-6.635788445064	164.354401358849	-5.80127363574975	143.577719808504	-5.7943510778022	143.692074057804	-6.68480801941617	174.983108211986	
2876000000	-6.63837520427069	164.493208569075	-5.79398581239981	143.620203210651	-5.80297077399756	143.625354269177	-6.67222841396439	175.077674242165	
2876500000	-6.61112988179062	164.581734718822	-5.79923527445097	143.585000198063	-5.80663743061476	143.586658666377	-6.67649901169551	175.027841900614	
2877000000	-6.58806859720264	164.539244129986	-5.80454298831726	143.550205462767	-5.79345326179275	143.579889355194	-6.64499325831001	174.891302564677	
2877500000	-6.56218026022547	164.77315641653	-5.78887833263677	143.626314147721	-5.80118448583779	143.697932869105	-6.66419834995559	175.026285489529	
2878000000	-6.53268332353156	164.862669695612	-5.78536124378186	143.556130911133	-5.79423123706857	143.494632445159	-6.64349215347628	175.045215510001	
2878500000	-6.54308845719116	164.864074691013	-5.79926329845057	143.552414143653	-5.80978097869336	143.560476703595	-6.64447499173416	175.091312899894	
2879000000	-6.50684245600256	165.037247406377	-5.81948009304832	143.503243460524	-5.79665313670205	143.670249035598	-6.64763406712904	175.080883829674	
2879500000	-6.50657671817588	164.987343168864	-5.80488729842188	143.586001460986	-5.80921635101971	143.513473988486	-6.65123700286324	175.06779514397	
2880000000	-6.48617636264014	165.212154560759	-5.78618704528397	143.568662736298	-5.80659862884575	143.546463066093	-6.62107790457438	175.223159217391	
2880500000	-6.48901678397047	165.375492104648	-5.810673310714	143.535077396734	-5.80041287138583	143.612680415845	-6.59913767792835	175.226369764003	
2881000000	-6.4377318879377	165.505471302272	-5.80111139119115	143.485929549078	-5.80665907960696	143.526848306804	-6.63178985602893	175.083035483602	
2881500000	-6.45134321815119	165.585740641338	-5.82308329454333	143.518592889951	-5.78987977465929	143.533992519643	-6.59231246991242	175.112146143608	
2882000000	-6.39951213205812	165.620964126326	-5.80446987133557	143.583052586403	-5.79473674419128	143.569176212787	-6.59108273055271	175.32029795623	
2882500000	-6.39612805980124	165.642541384093	-5.80760013255123	143.517419336226	-5.8063829834276	143.536514693764	-6.60598373029839	175.279219815316	
2883000000	-6.37193703597006	165.77336063259	-5.81539583014564	143.394285021174	-5.79808131221585	143.478375429917	-6.58129468879444	175.174790537559	
2883500000	-6.34996153046881	166.020159697327	-5.80969820499292	143.497827648851	-5.80834682689293	143.553236146383	-6.58847142967881	175.252470333662	
2884000000	-6.35777994922749	166.211073193799	-5.79052697434107	143.404998310163	-5.79637485143408	143.601683632101	-6.53820671865004	175.311169542235	
2884500000	-6.33183053470962	166.287120848889	-5.83023704507648	143.498736721825	-5.80847270001492	143.551736638774	-6.54711576900474	175.393155443194	
2885000000	-6.33795079493071	166.43853319458	-5.81082643692269	143.540619226196	-5.79626517613118	143.418587406757	-6.53922676892825	175.383547208298	
2885500000	-6.29822290179345	166.506761509573	-5.80583656058515	143.489980789769	-5.79881037930981	143.416678670273	-6.52567039764229	175.404104259257	
2886000000	-6.31063445329954	166.672147008371	-5.81242190860037	143.448253382743	-5.79919086229265	143.477710754006	-6.53398269131698	175.295467300651	
2886500000	-6.27565601903999	166.836476387559	-5.81140686807914	143.39178596086	-5.79364383165102	143.53497578975	-6.48719767348449	175.247369444916	
2887000000	-6.26815954631979	167.010145162527	-5.78804729394557	143.463599496816	-5.79467485843848	143.574427417674	-6.4983913846631	175.457554995553	
2887500000	-6.26024839000922	167.332293353136	-5.81274593354688	143.485028321957	-5.78131390245129	143.557469952039	-6.49727971312424	175.325746757457	
2888000000	-6.24941672170751	167.288698895005	-5.80506963361831	143.49299500256	-5.79854866559124	143.476128433317	-6.4827822211505	175.299852190102	
2888500000	-6.23791140087185	167.387752422806	-5.80633494464338	143.471078532456	-5.79826889095962	143.568865201222	-6.47446357196332	175.455086924281	
2889000000	-6.23411112007024	167.719622789071	-5.79278778348242	143.502996861372	-5.7983737738597	143.386291369975	-6.46400301370198	175.416923208228	
2889500000	-6.22866597126886	167.830031240342	-5.79888394433062	143.442629072998	-5.78348020256271	143.382657120768	-6.43575789736684	175.51645695011	
2890000000	-6.20788406489393	167.940950401345	-5.78398436537585	143.43847745697	-5.78198341847321	143.439197336381	-6.42478314432478	175.33484551179	
2890500000	-6.19281790953204	167.991316111766	-5.79066999849752	143.528041460367	-5.78922253642206	143.502302183117	-6.43082111126186	175.496754335504	
2891000000	-6.20095399263168	168.240683421873	-5.79620013591665	143.438399695808	-5.77848532782145	143.469606020121	-6.41374183260803	175.53010979333	
2891500000	-6.2026848329096	168.474116673558	-5.78806037683323	143.378577728758	-5.77839751316172	143.489570115331	-6.39870285017252	175.419005661667	
2892000000	-6.18523701436492	168.463023647477	-5.80314137891398	143.329474440883	-5.78268964269998	143.456766958742	-6.39715106874115	175.411280953068	
2892500000	-6.16820196375448	168.655078244647	-5.77922160323504	143.430750934804	-5.78233598353125	143.557716810404	-6.38888590942022	175.48254595823	
2893000000	-6.14435799475214	168.869553533098	-5.77348863409949	143.510009616041	-5.76044277935759	143.435210550874	-6.36325870124001	175.593073786221	
2893500000	-6.15018965182759	168.958035872394	-5.8025604359974	143.489413889073	-5.77592023952656	143.521428919051	-6.36995419944699	175.522993018657	
2894000000	-6.14243266097642	169.138905418469	-5.77501915408971	143.504256205459	-5.77009077945169	143.472408513459	-6.35927779325968	175.755097943065	
2894500000	-6.12845741351136	169.320955164245	-5.76618273722018	143.39361832583	-5.7537355089172	143.463864484892	-6.3586206034645	175.626709707972	
2895000000	-6.12531807382818	169.574438828154	-5.7812118585163	143.434951173601	-5.7630987894835	143.481539065911	-6.33370237953667	175.670835188264	
2895500000	-6.11994404970352	169.630002156992	-5.7646108992598	143.476669855455	-5.75882635393396	143.436555827955	-6.3158648323969	175.632590639778	
2896000000	-6.11698150019873	169.873443012901	-5.75773974912999	143.448715935724	-5.75834680581588	143.542451481144	-6.31885107916444	175.770557997141	
2896500000	-6.11629220230382	170.068234498873	-5.76389534954293	143.41918410278	-5.76618989637453	143.50593895261	-6.31898745713501	175.633955342006	
2897000000	-6.10940295977046	170.052408717127	-5.7611980288211	143.410580395013	-5.75805394557117	143.452542666213	-6.31895535365231	175.557169224309	
2897500000	-6.09641655165244	170.337057176391	-5.76393667445527	143.361406475579	-5.73286420230112	143.445157402484	-6.29970315490782	175.632084322577	
2898000000	-6.10820826956974	170.504734343118	-5.75470557611508	143.41342009036	-5.7603878620885	143.4966949935	-6.26845139221789	175.663433183982	
2898500000	-6.12790448101026	170.453181575207	-5.7546305159762	143.4299216555	-5.75079447050996	143.444085246354	-6.27637430143058	175.764046708117	
2899000000	-6.11627864016222	170.759016311874	-5.75055544427507	143.385862646241	-5.76892347499446	143.429367842218	-6.27599580389632	175.682691729549	
2899500000	-6.11010924315636	170.893854284608	-5.75476722296265	143.393234482235	-5.7434018716074	143.415714154323	-6.2600764594296	175.72764937744	
2900000000	-6.10145694309389	171.054220894074	-5.74533877724218	143.417420542646	-5.74445599504535	143.501146160693	-6.26616840724309	175.750846850955	
2900500000	-6.10280458346549	171.074500545428	-5.7266587505976	143.284692795896	-5.72928507653887	143.361598137803	-6.22432594715949	175.681618093327	
2901000000	-6.12512257825984	171.331500990359	-5.75885581936895	143.358929385928	-5.73054121324346	143.44266251382	-6.25082189953459	175.719990236418	
2901500000	-6.11926200725463	171.518251302077	-5.73344321273478	143.318664004252	-5.7357364968683	143.342501493757	-6.21640854098113	175.670837350725	
2902000000	-6.1142359026306	171.656593457309	-5.72802379408651	143.304212866078	-5.72640858844059	143.361879729481	-6.19486154667873	175.634233975813	
2902500000	-6.12368999531396	171.865290986455	-5.74378739467497	143.303841074567	-5.72070753836074	143.380010942525	-6.20854465708397	175.717969364614	
2903000000	-6.11302925561453	171.964566317298	-5.72870153830138	143.364875071341	-5.71860579544539	143.364041489778	-6.18945830828695	175.724977148151	
2903500000	-6.12867760158812	172.124652134234	-5.7233569876728	143.296925005861	-5.72107176107075	143.376830909021	-6.21262653808636	175.735204831612	
2904000000	-6.12269831005547	172.123558411246	-5.70676438849053	143.326668515066	-5.70823908217707	143.353824913616	-6.16903090615509	175.801867515132	
2904500000	-6.11474848346375	172.401821470574	-5.70414811082682	143.298592453757	-5.70238258409021	143.364298050817	-6.17291823295091	175.663185061911	
2905000000	-6.1289045074271	172.485830894561	-5.71186989673216	143.35753236286	-5.70505703936997	143.296726078924	-6.20014365389358	175.797992809716	
2905500000	-6.1473651271439	172.513004044878	-5.69977181033537	143.2989756329	-5.71443349179317	143.300561741558	-6.19443229695891	175.826913869323	
2906000000	-6.15070315855555	172.830455074301	-5.71304264536054	143.296707713755	-5.70489487766008	143.347334278338	-6.17563880001993	175.862004708371	
2906500000	-6.16930043514266	173.050325152425	-5.70811257598094	143.136053173576	-5.6932887394027	143.275022565314	-6.16491458015507	175.727114940578	
2907000000	-6.16122062170179	172.931889325941	-5.70847987952717	143.191041963284	-5.67879713028743	143.250810554149	-6.14488592844717	175.879143951409	
2907500000	-6.17547565361938	172.940179563769	-5.70051878044755	143.119532278351	-5.69748886229157	143.202628728482	-6.16586197990773	175.734417073835	
2908000000	-6.17669826735822	173.247037279795	-5.69473800559073	143.160105048415	-5.69246290529925	143.115985486797	-6.14538349211285	175.752350703331	
2908500000	-6.14370468163397	173.187860728742	-5.67997758989684	143.11080742841	-5.66890797534014	143.113638392414	-6.13312892612251	175.750789155837	
2909000000	-6.19823367275027	173.427772221152	-5.67112180405775	143.219787215181	-5.67741627942269	143.196650532404	-6.14356792249663	175.841827097544	
2909500000	-6.17437012516002	173.745147724777	-5.67594080859951	143.118364649503	-5.67078657030878	143.0536900773	-6.13187075079522	175.57848434688	
2910000000	-6.18619357749309	173.562790544761	-5.66292884265977	143.098788592572	-5.67214906824242	143.113176070809	-6.14847073608328	175.698274260141	
2910500000	-6.20151563325785	173.878940465657	-5.67353799358056	143.248959922212	-5.66414809707047	143.113966127725	-6.15502852702181	175.63788885162	
2911000000	-6.20161028340708	173.90005025192	-5.65924663465763	143.060246525932	-5.66697251140779	143.016651270942	-6.14016113704221	175.640468991266	
2911500000	-6.25239169565128	173.934012663931	-5.69153181564401	143.026132961225	-5.66131807343473	142.998704711903	-6.11396670009408	175.545925259924	
2912000000	-6.25271052706609	174.067424607714	-5.66524358110579	143.000015758008	-5.65595533403872	143.094022065653	-6.13006598855371	175.903028564129	
2912500000	-6.2481195102815	174.107265317794	-5.65228820611481	142.986654650665	-5.645307224939	143.008595360479	-6.114930892402	175.676245867152	
2913000000	-6.25839998114373	174.367497560949	-5.64477982542234	142.97917537666	-5.66068168011314	143.027792406853	-6.1213081423424	175.768331565382	
2913500000	-6.2986347875399	174.273723358737	-5.66176854188943	142.801798675626	-5.64610075113876	142.930695735319	-6.12166783000918	175.672435428242	
2914000000	-6.28723448468819	174.258738766332	-5.63123546076914	142.928210806264	-5.63823129767568	142.93559020163	-6.11093368104759	175.675998133245	
2914500000	-6.31911388566145	174.490388338969	-5.65714700929081	142.861865740008	-5.65690368383132	142.879521999233	-6.17225896644913	175.774723414033	
2915000000	-6.30079893217047	174.532739520426	-5.63484036743164	142.78744929073	-5.62869597145761	142.764256628688	-6.09784935666871	175.465814673111	
2915500000	-6.33935515291569	174.565100136079	-5.62877343319153	142.825569692643	-5.63330664748183	142.821722064946	-6.11253829948589	175.500217179675	
2916000000	-6.3269380755381	174.667695887747	-5.63036255877544	142.7655411358	-5.61882792464568	142.794199845454	-6.12006754875058	175.518118029131	
2916500000	-6.39757175114649	174.822991154962	-5.63743002316314	142.624909018373	-5.6216983569139	142.709282391336	-6.12027298697794	175.485029275826	
2917000000	-6.41004451627281	174.80715183928	-5.63913005341903	142.737899352161	-5.61369980817091	142.748155522918	-6.1209143493412	175.596267449677	
2917500000	-6.40533803971958	175.027327495234	-5.62347392903737	142.704798878168	-5.61775515892123	142.8298335409	-6.13288183060804	175.687213006331	
2918000000	-6.41001196659224	175.02921118181	-5.62769116738412	142.619844143365	-5.62766627740923	142.512119782391	-6.12686691850498	175.290245881485	
2918500000	-6.44307041852957	174.742809415862	-5.61880119267772	142.424833039865	-5.61598992825446	142.561065777212	-6.10670923508716	175.39103699115	
2919000000	-6.45343852931893	174.879071828661	-5.59377941089278	142.532724788391	-5.61525128735903	142.606237414095	-6.13540977776193	175.450919821661	
2919500000	-6.49143968702762	175.205834715757	-5.61840047967219	142.581674787285	-5.59661527469441	142.520463751293	-6.09383651427949	175.376100778257	
2920000000	-6.49886729523359	175.013794926847	-5.61309374637032	142.506826577574	-5.6005336914297	142.403042016507	-6.11709020835857	175.115972843962	
2920500000	-6.51771409417131	175.144928865653	-5.59428133213249	142.347728135514	-5.5993082616567	142.352971549154	-6.1343748157812	175.323577748133	
2921000000	-6.5243266136943	174.870639035549	-5.60234263135403	142.423367428035	-5.60264813229756	142.339028743697	-6.12961930847116	175.294800960497	
2921500000	-6.52286432231386	175.254546477252	-5.60709489748388	142.465568836747	-5.58158874523192	142.323046902496	-6.1322062315495	175.193763387065	
2922000000	-6.56629984772449	175.146583972362	-5.60336365596272	142.307550366469	-5.60863141005018	142.188829635891	-6.16590524019172	175.067296365044	
2922500000	-6.5621761399635	175.046174811158	-5.59030568736994	142.229453548763	-5.58589163453438	142.178419137183	-6.1500778864652	174.9788544661	
2923000000	-6.62588370697161	175.047525328676	-5.59364110184322	142.275445354952	-5.58349738081378	142.287333322899	-6.13695301327958	175.15082488612	
2923500000	-6.62178642601013	174.829522019641	-5.59474776693213	142.1425132489	-5.58409017563598	142.076938145511	-6.15224066136151	175.204061553805	
2924000000	-6.67508692514704	175.141645242179	-5.6048916097228	141.996368691287	-5.58808097142573	142.062873793389	-6.19765572465819	175.014606563055	
2924500000	-6.62417932225183	174.956051645189	-5.57858838051236	142.097368998391	-5.59137757982527	142.008399545191	-6.20367394599257	175.040355937401	
2925000000	-6.71078762444654	175.051914995714	-5.58726554621662	141.903718802051	-5.59210864771516	142.053746550026	-6.19676555069753	174.949236226569	
2925500000	-6.71102518059904	175.128651461784	-5.58479651563208	141.952522220063	-5.57943114878706	142.097183015855	-6.18264943339269	175.137749039	
2926000000	-6.7099731099172	174.857382488935	-5.56347018329222	141.849625381568	-5.58489649075799	141.893538366911	-6.19365438595086	174.952101974729	
2926500000	-6.77052551529389	174.835195518692	-5.59397214390364	141.816445797669	-5.57982469500211	141.76541310142	-6.18613899890719	174.709862003175	
2927000000	-6.75369572683092	174.966605247341	-5.58615997843191	141.899744047306	-5.56587899343404	141.850863459009	-6.19021626290857	174.811455123467	
2927500000	-6.78850730773412	174.845392463881	-5.58435574808585	141.794154574089	-5.56549882593535	141.746940841218	-6.20416025639344	174.892470169325	
2928000000	-6.81969481112374	174.785856952607	-5.5923013797637	141.688104607848	-5.56005724102028	141.794308821913	-6.21688614441161	174.8495484532	
2928500000	-6.83726008765656	174.726448023767	-5.56647491912053	141.588816515606	-5.58374411663943	141.648491846791	-6.22627693433974	174.545379612635	
2929000000	-6.86462824975466	174.75477558199	-5.58460774218246	141.663249853093	-5.58711786470002	141.631957743899	-6.25326379680646	174.766925876307	
2929500000	-6.89519441713859	174.428533591445	-5.56913739918796	141.529074557677	-5.56645114126954	141.487717746625	-6.25124672209141	174.560966339043	
2930000000	-6.86318088529853	174.637881136322	-5.58106361077182	141.568086089777	-5.56002578398502	141.413898602749	-6.25818821382429	174.492247745133	
2930500000	-6.90705924347052	174.287930288911	-5.56701517468012	141.365962177255	-5.55920163699309	141.385018712817	-6.24162965429531	174.522750339348	
2931000000	-6.95236169450939	174.166108325364	-5.58283765961063	141.374069484612	-5.57042223046674	141.278578831154	-6.27769615397261	174.541649014898	
2931500000	-6.97126729200201	174.334842698101	-5.5769781888779	141.281019836781	-5.57331925787695	141.241546973725	-6.27906870708051	174.334459413203	
2932000000	-6.9789948110527	174.033238284992	-5.57452614017939	141.253196937804	-5.56119938568321	141.305379549498	-6.25148337389772	174.205410703736	
2932500000	-7.01173017885846	173.933800112382	-5.56784254792839	141.133483284606	-5.56266429221599	141.14330152017	-6.29927402422657	174.06230699754	
2933000000	-7.02512305263296	173.943386293178	-5.56055487039574	141.148481665401	-5.57834479260404	141.068315017366	-6.31594308522867	174.160192670857	
2933500000	-7.0666071573579	173.815037460604	-5.57373600215129	141.043493987401	-5.55591035596328	141.041451745138	-6.27180418984886	174.157201105879	
2934000000	-7.07088243579634	173.51731279554	-5.56928394736852	140.946108185452	-5.56631805739824	140.82594942214	-6.29015200613031	173.928775587148	
2934500000	-7.09436588223125	173.313362036687	-5.56889574288921	140.904808017149	-5.57580302239182	140.836451082895	-6.31827380450631	174.153605325078	
2935000000	-7.10945220477102	173.502288269969	-5.56855028079148	140.945925497345	-5.56277677801502	140.902343760697	-6.32059299558825	173.877954095738	
2935500000	-7.13974503104943	173.017737839141	-5.58727617286367	140.737612711924	-5.57536994240747	140.837277378041	-6.33604413598025	173.95985778896	
2936000000	-7.19295928456756	173.20390125988	-5.57261734794319	140.739194169803	-5.56364909470615	140.744646330623	-6.34062108687115	173.792298648979	
2936500000	-7.20400821697842	172.790178533846	-5.58344958153227	140.661782367639	-5.57426114557037	140.669051317081	-6.3346224789635	173.825423818282	
2937000000	-7.20429512254152	172.4821278089	-5.57648813507415	140.463076422668	-5.56390662953	140.564072289485	-6.36537491572079	173.535391313585	
2937500000	-7.21541508101289	172.46030610473	-5.5708317731598	140.54946022466	-5.56475746184941	140.518584191525	-6.35140680565291	173.634533304251	
2938000000	-7.23160378329377	172.368081044304	-5.5608084814114	140.317034348031	-5.55620877209114	140.4461149408	-6.34369187533449	173.454836148977	
2938500000	-7.23290027331405	172.237468148522	-5.56927378211601	140.36607669335	-5.5828326904951	140.266339519522	-6.38033873397014	173.553367268185	
2939000000	-7.28776574918568	171.854629547639	-5.57387926529032	140.276624987305	-5.58297614465773	140.19892839561	-6.38970160193321	173.458944931293	
2939500000	-7.29305260936266	171.80664644013	-5.59072662222178	140.233074751585	-5.57183835424288	140.310905853219	-6.42828977017247	173.448931594303	
2940000000	-7.30671289637596	171.823706578972	-5.58548466523071	140.215864586653	-5.56476954128437	140.110714936009	-6.40789236667852	173.260546936853	
2940500000	-7.328867171836	171.602842476704	-5.57725476849485	140.053154000328	-5.5852615636221	140.000002156262	-6.40272673965525	173.295353055776	
2941000000	-7.36753387313877	171.243170067439	-5.57908147354513	140.032152239291	-5.55952824512193	139.977437536976	-6.38913647229436	173.147521024952	
2941500000	-7.36023403959008	171.107251342814	-5.58763398863356	139.89975053041	-5.57219702978947	139.955747063224	-6.4487103396415	172.944525628525	
2942000000	-7.39196762908073	170.897082001586	-5.58707443838	139.902451347694	-5.57388334326676	139.869371168158	-6.44352119733493	173.048386187208	
2942500000	-7.4073294153413	170.76436063662	-5.58027929683713	139.784910855112	-5.59561566797735	139.722252588705	-6.44609865425417	172.772569990206	
2943000000	-7.40765023822913	170.570286397592	-5.58606327228525	139.686122606277	-5.58303371883008	139.699510655066	-6.42891076996424	172.864585253293	
2943500000	-7.41689501768531	170.130385245426	-5.60030418997695	139.64075567986	-5.58532644206377	139.642656969762	-6.46134278072106	172.779325301026	
2944000000	-7.45660209667487	170.082657664209	-5.59622938356385	139.572005995201	-5.58960585228768	139.586649134059	-6.46162290463318	172.83339846368	
2944500000	-7.44624576497924	169.879243008938	-5.61122688312964	139.542867254178	-5.61023547801726	139.62517635827	-6.48658797248449	172.856248001851	
2945000000	-7.48067488798947	169.426279226538	-5.61052441122738	139.487606305411	-5.59103013412035	139.489598688227	-6.46957699347214	172.663459867572	
2945500000	-7.47655872862097	169.298379617964	-5.61886150966147	139.391099307129	-5.59390708507091	139.248290582656	-6.4691112187198	172.554066487328	
2946000000	-7.46322276181639	169.256432937094	-5.60456833450113	139.231605109564	-5.60131594789996	139.24089346078	-6.48227994750711	172.491215109283	
2946500000	-7.51913285069181	168.839496824323	-5.61412943723113	139.153998684614	-5.60767145061527	139.295452291326	-6.49270899007224	172.343052611991	
2947000000	-7.47830574871807	168.690189615704	-5.61693033796369	139.119091700593	-5.60818350853123	139.063488237405	-6.50521450947381	172.332259657175	
2947500000	-7.50644079736708	168.460785896878	-5.6142519255181	139.009200495456	-5.61838662299678	138.918640541428	-6.51468169378723	172.233560011602	
2948000000	-7.51051900902985	168.34024123401	-5.60390361141047	139.085588913892	-5.6104540259102	139.072595420717	-6.51855367697958	172.247641615704	
2948500000	-7.51578588125966	167.755949090244	-5.62879064220391	138.970856445986	-5.62674675163697	138.960240906742	-6.51794995128663	172.234919343559	
2949000000	-7.49898373973712	167.689948550069	-5.62941686319713	138.776921756414	-5.62011940109298	138.926688312463	-6.51273627679146	172.194299237277	
2949500000	-7.51971372098653	167.625800407612	-5.62408272789151	138.770907693054	-5.62041020791284	138.729136798992	-6.53788391465761	171.941632536831	
2950000000	-7.52089984363743	167.247014106669	-5.63420551329295	138.76919420789	-5.63080694533456	138.783182398465	-6.55546046874229	171.996774881476	
2950500000	-7.5076476591899	166.973932060839	-5.62734423838172	138.622031563396	-5.62547197693512	138.588237154924	-6.57704513474397	171.929647049709	
2951000000	-7.48444427108677	166.668246211226	-5.65213242956268	138.516434225239	-5.63447993040601	138.517266464466	-6.54605158670916	171.745643610384	
2951500000	-7.51660395655462	166.485776051267	-5.63421518997736	138.492382301276	-5.63467393719874	138.41116262156	-6.53666365444821	171.783642935867	
2952000000	-7.50975967315858	166.20211743732	-5.6413655890953	138.516166539248	-5.62975349975846	138.436058830087	-6.5670356287742	171.764669602638	
2952500000	-7.50842295217008	166.041593017255	-5.64749834195106	138.382993186259	-5.64971322210672	138.472782264423	-6.57749000709123	171.741635159074	
2953000000	-7.51172922918723	165.956506081451	-5.65502329382882	138.256557535991	-5.66420448416268	138.302304849517	-6.57193901184826	171.568173990868	
2953500000	-7.50997105867459	165.504412706445	-5.64786259037516	138.128113108958	-5.63747264228267	138.237455412534	-6.56032855969742	171.557061767168	
2954000000	-7.50767290466063	165.388245639914	-5.65685962350254	138.058430934277	-5.65989720726892	138.093378669781	-6.58045182271385	171.40966984054	
2954500000	-7.49842528886046	165.249898229285	-5.65306387759146	138.062901693986	-5.6578997464386	138.100049806739	-6.5718569002059	171.361493495918	
2955000000	-7.49191174254218	164.96158695685	-5.69477038454053	137.944092290713	-5.66876309878428	138.008802565284	-6.58844570652756	171.233564104377	
2955500000	-7.51505446500915	164.965780440815	-5.67032752103912	137.944727716699	-5.65938105381056	137.986429523563	-6.58731259022404	171.368120226498	
2956000000	-7.47680264777911	164.693789954138	-5.68388852697852	137.953546377766	-5.66838507043364	137.881028219941	-6.58415037673844	171.427564111878	
2956500000	-7.4463539965268	164.475119747645	-5.68534128972998	137.877702947595	-5.67071314268976	137.76676150149	-6.57203557125558	171.056546819735	
2957000000	-7.44821069115984	164.018758365412	-5.69532129625872	137.695821069214	-5.6688248817489	137.780670226661	-6.54842786632455	171.247049440681	
2957500000	-7.45677508044928	164.029524622202	-5.68480373168993	137.736476941219	-5.68423363496776	137.617223687461	-6.59764061732943	171.194876242418	
2958000000	-7.43952656605227	163.872046354185	-5.67619832076561	137.605282399127	-5.68671037055501	137.653654209345	-6.56946345802806	171.174952089307	
2958500000	-7.42892315055372	163.485036290961	-5.70098578831017	137.590636960409	-5.69395955438205	137.635063735285	-6.57603538279546	171.083537482749	
2959000000	-7.3834653688252	163.362887145613	-5.68080733829535	137.512975014255	-5.67535127140243	137.515764316014	-6.58350899288348	171.149845491591	
2959500000	-7.38970237295275	163.14327528656	-5.69073395772827	137.387956786589	-5.69212840137909	137.445640597992	-6.57114515614231	170.929786916278	
2960000000	-7.39104960991699	162.765545560335	-5.70014133113843	137.344244100908	-5.69596102275575	137.383544663561	-6.57461965972691	171.058250808728	
2960500000	-7.35340262614621	162.738603130216	-5.71500047259283	137.350290833083	-5.69180801574713	137.289888147845	-6.567808067591	171.040290001139	
2961000000	-7.33500390449733	162.610058073175	-5.69570019276848	137.255353038987	-5.70815050281149	137.284992660509	-6.57315430909135	171.010318343499	
2961500000	-7.32383798368445	162.420638202405	-5.72211883018248	137.214864177375	-5.69352048396274	137.055604093966	-6.56511948989067	170.812233395265	
2962000000	-7.30647802311178	162.120184170146	-5.72435521407618	137.242613636916	-5.7122590310884	137.044109675104	-6.56222573518109	170.912721149505	
2962500000	-7.30785272325483	162.25177467361	-5.70934539202642	137.072808378403	-5.71895291127565	137.124710510013	-6.53433014048475	170.836607518776	
2963000000	-7.28786136443686	161.856250885167	-5.74041668867679	137.048168318004	-5.73495485524758	136.941988496782	-6.55736615137625	170.813724051358	
2963500000	-7.26241480402264	161.695121850151	-5.71971743476599	136.994860128164	-5.73086324729237	136.953919031002	-6.5542360598699	170.747128561494	
2964000000	-7.23914202800342	161.735887024061	-5.73673866050478	137.009377915429	-5.71292084629099	136.989797985705	-6.55226619291368	170.825269244623	
2964500000	-7.2401232291654	161.540144304808	-5.7401136596852	136.984309511962	-5.72487538768793	136.927498192182	-6.556000641896	170.891397775784	
2965000000	-7.21711014482115	161.321416481802	-5.75539782981329	136.785299406596	-5.73297659734436	136.820968280455	-6.5343481879674	170.749067795951	
2965500000	-7.19283067001775	161.24809044621	-5.74933645765106	136.770504429773	-5.71841068107105	136.796575402937	-6.52156148142035	170.725250119621	
2966000000	-7.14764548215514	161.148607560727	-5.7426470537253	136.742956210508	-5.7401441997431	136.684554462995	-6.5118529318363	170.779583989803	
2966500000	-7.15049274003518	161.062664421792	-5.775481229056	136.690038395514	-5.74678817569916	136.632006763062	-6.52986195782676	170.787443701433	
2967000000	-7.11926561355329	160.969910253817	-5.75266850969789	136.690480665804	-5.75537670630299	136.71629325993	-6.50593074235736	170.815239767355	
2967500000	-7.11354181582732	160.771833542605	-5.75784882676805	136.621622963243	-5.74647561538507	136.670070379019	-6.53141795311279	170.710489215477	
2968000000	-7.07899104572717	160.529425185327	-5.76891448817969	136.493808671216	-5.7581004421808	136.492212666328	-6.48429904903013	170.725869855189	
2968500000	-7.05756486980769	160.717455345119	-5.77408208711004	136.63165141759	-5.75251766651585	136.477831933841	-6.48452101118355	170.655755996	
2969000000	-7.02313046755976	160.529574637725	-5.75353668292867	136.523471888354	-5.76336963599989	136.422219727588	-6.46144087161643	170.683766446917	
2969500000	-7.01262898025075	160.408646529598	-5.77600860907273	136.349197010106	-5.76615373010756	136.347195740045	-6.47926540367282	170.696853710639	
2970000000	-6.97858746002708	160.382053422729	-5.79456490217452	136.286868852315	-5.75764603677195	136.447162847825	-6.45986742827139	170.618387894694	
2970500000	-6.92285773546876	160.173196225056	-5.78449060921244	136.390332513561	-5.79022870791257	136.282343762176	-6.46542280519165	170.629623382842	
2971000000	-6.90087061561154	160.307652554368	-5.78509971028007	136.304103273024	-5.77939439896645	136.238469095108	-6.4764713484689	170.617982399952	
2971500000	-6.91933594147763	160.078687301494	-5.78392961051811	136.243602618399	-5.77937608134445	136.22960373901	-6.45137667467161	170.592534073308	
2972000000	-6.84563979066913	160.042460072271	-5.77943664351733	136.140645850029	-5.78148955672489	136.184488504183	-6.44229866024633	170.638328658065	
2972500000	-6.84776238472075	159.997432259612	-5.79952932909628	136.111477122184	-5.79091824014737	136.231523151598	-6.41918541211126	170.845040858352	
2973000000	-6.81590354071111	159.950241529449	-5.78199517543586	136.17276199539	-5.80031183255191	136.02575236697	-6.38433896941563	170.705116919182	
2973500000	-6.79942882402668	159.799019148685	-5.79658819409852	136.044545015787	-5.79766004108583	136.154157623142	-6.40841612575358	170.699796260193	
2974000000	-6.75996630314564	159.878934994303	-5.79711574568624	136.062133791856	-5.78314772626194	136.002411496163	-6.40855830782992	170.739669082181	
2974500000	-6.73938006655052	159.996447093585	-5.82195370455483	136.020363760808	-5.79156104249963	135.988938321355	-6.39643070905831	170.7807227185	
2975000000	-6.69698584402416	159.988137999706	-5.82115180367123	135.927492606586	-5.77252000968135	135.988669512621	-6.38940642099762	170.691569732786	
2975500000	-6.69764988222348	159.850716781016	-5.80675679053041	135.929977801149	-5.77953550234157	135.99156394533	-6.38659951690949	170.719173117225	
2976000000	-6.65586274365999	159.957740719139	-5.79893549647268	135.914462507921	-5.79186271141415	135.86441136631	-6.34667100743169	170.653588799317	
2976500000	-6.63197844209176	160.068348423283	-5.81843146040794	135.789513173483	-5.79890694689808	135.926629515639	-6.35992865470559	170.762883869715	
2977000000	-6.60896586881167	159.951991657438	-5.80387096543928	135.860502484014	-5.80401303871382	135.948438083771	-6.34006840817062	171.00952991092	
2977500000	-6.58743035964134	159.919440141165	-5.80073869762959	135.825776271095	-5.80848319369365	135.814648016279	-6.33218344351272	170.963470604559	
2978000000	-6.54611187335005	160.038756783363	-5.79632859463368	135.764587209461	-5.80782676056558	135.80894084601	-6.32093856294535	170.802392072536	
2978500000	-6.530615813066	159.980027336028	-5.80167317975402	135.852056490325	-5.80253395141924	135.855504496663	-6.29639765913566	170.994172519256	
2979000000	-6.49449045310478	160.023023634141	-5.81002323886107	135.799643730289	-5.80478961702633	135.736969849814	-6.30347434042896	170.900015988134	
2979500000	-6.47668287046483	160.187466861541	-5.8165236282518	135.714487208506	-5.82028590289367	135.676262387041	-6.29272766946272	170.891918985104	
2980000000	-6.44435012678544	160.099423156307	-5.82511871525117	135.740995734716	-5.79993632225275	135.795435839485	-6.2776669438887	171.060752871794	
2980500000	-6.42453936272376	160.117061047751	-5.82224870750337	135.669718206941	-5.8093825263052	135.630967967062	-6.24157963256362	171.131004176003	
2981000000	-6.42291663848518	160.210528031219	-5.81773082749955	135.812363249126	-5.81826596012095	135.617200457495	-6.23367501705922	171.118711078078	
2981500000	-6.39056876584394	160.371564389061	-5.8220057575586	135.709386710085	-5.82828156570066	135.63115626542	-6.24892698074159	171.181208638812	
2982000000	-6.36513820714884	160.363531127394	-5.80192142760327	135.66620355764	-5.81328315470855	135.633867479185	-6.22290499066949	171.320009713824	
2982500000	-6.32455832376428	160.425648994337	-5.81647801173382	135.624563604152	-5.82084825619132	135.65620465069	-6.2366239831648	171.094789146733	
2983000000	-6.30135383483934	160.563644249103	-5.8221690700531	135.692648734397	-5.82202586081845	135.692187344778	-6.22334030921691	171.353557432463	
2983500000	-6.30494774412695	160.534679804066	-5.82487097095579	135.615368409393	-5.81627948748971	135.581791747909	-6.1819972672613	171.365207112266	
2984000000	-6.26970969842058	160.713972397146	-5.81896843562299	135.575821852151	-5.81881551013402	135.538129927883	-6.16790385172865	171.494471823149	
2984500000	-6.23796680331472	160.732371131915	-5.83348652476559	135.589516676566	-5.81628256857647	135.571079548047	-6.18021935966948	171.387153288498	
2985000000	-6.23101934414517	160.886900264395	-5.83629744435819	135.537570447041	-5.83251026775216	135.562386672019	-6.18232942792451	171.453119011887	
2985500000	-6.2060179922841	160.991061683622	-5.81066884841129	135.409819060487	-5.82457440612186	135.478730942879	-6.14422795339573	171.345727393376	
2986000000	-6.1798281326112	160.936584800834	-5.81897539803385	135.485796833628	-5.82024633103619	135.477341353294	-6.13668450691631	171.379574076084	
2986500000	-6.15169076563896	161.189369062754	-5.83629090406319	135.464522348793	-5.81648057145429	135.493750086622	-6.14703597229075	171.391124803594	
2987000000	-6.13886451994295	161.162491179616	-5.82792296492641	135.53205279281	-5.81410114014047	135.585572335705	-6.12714584139155	171.802350731082	
2987500000	-6.12086741583281	161.397608362307	-5.82679719892788	135.443428625799	-5.8254363458205	135.415400354257	-6.1051878430947	171.67957928282	
2988000000	-6.10624604520283	161.58240477642	-5.82853050279758	135.501086573304	-5.81031883113812	135.488505213908	-6.10359001732991	171.752176596045	
2988500000	-6.07104594368809	161.625493774561	-5.82687949131146	135.451998291647	-5.81775626008301	135.34984199379	-6.05157806022048	171.843616732473	
2989000000	-6.06143475079466	161.68208222636	-5.82544753719297	135.474604532869	-5.81879741376322	135.40858907803	-6.0733167378977	171.683722503359	
2989500000	-6.06327404744033	162.003062778527	-5.83811826019195	135.422696989775	-5.82929938638336	135.443663713285	-6.07655096164482	171.818839064053	
2990000000	-6.02266598771994	161.933843885927	-5.82656771087316	135.38841728855	-5.82362691629846	135.34474045192	-6.02179766465296	171.94302857718	
2990500000	-6.00714203946521	162.222051744298	-5.83236848272847	135.407897056139	-5.82818611522286	135.37803437273	-6.02434774166757	171.988770615199	
2991000000	-5.97846926643344	162.272725397865	-5.8242957659581	135.411722378647	-5.82420419858286	135.360453333916	-6.0377231247399	172.047548705532	
2991500000	-5.95686187172365	162.574155497854	-5.81768198427396	135.352831850698	-5.8197239078372	135.407284363564	-5.99082557479428	171.996496109707	
2992000000	-5.94720277681365	162.636209963143	-5.82273747990254	135.335926522195	-5.81544326704629	135.417447916897	-5.98864001705768	172.174550494449	
2992500000	-5.92428473413801	162.806486420144	-5.81793856120844	135.426047627569	-5.82342066634143	135.348886477061	-5.98499230803468	172.234115571594	
2993000000	-5.91411765758354	162.902181812882	-5.82809288804127	135.294969971348	-5.82331822091917	135.278740775987	-5.9917880411461	172.157100235065	
2993500000	-5.89637151532134	163.190181253521	-5.81604115783681	135.364327110947	-5.79217579679012	135.350842035708	-5.97201552445212	172.244960870758	
2994000000	-5.87414030057904	163.39766490701	-5.80131427551833	135.363658174294	-5.80309770974761	135.356625638799	-5.95214518291899	172.412734158621	
2994500000	-5.84185920369885	163.374897521661	-5.8035000256893	135.360134584921	-5.80227396337564	135.391351310939	-5.95477429751611	172.359099929785	
2995000000	-5.83798756922015	163.472658298539	-5.80720746619024	135.287229281342	-5.80126138041646	135.282385561438	-5.93779587433664	172.439567629997	
2995500000	-5.8419517304792	163.81944744958	-5.79621219365651	135.321135873501	-5.80105357801486	135.336066527216	-5.9103709207615	172.415925753198	
2996000000	-5.82369305301119	163.842228135968	-5.80500020430663	135.272617401681	-5.78674457976154	135.274405967292	-5.89371934116267	172.393926931804	
2996500000	-5.8150223219348	164.074458351975	-5.80208415357647	135.327733121005	-5.80505302735063	135.342884272859	-5.92172577204951	172.758588433997	
2997000000	-5.80312639800101	164.283332977585	-5.81337167256771	135.387908069663	-5.79536813700884	135.411753714159	-5.90236036654326	172.7574933678	
2997500000	-5.81152038510647	164.425203986862	-5.81689313686287	135.342690614611	-5.79725776780567	135.300952785848	-5.90294749914392	172.615340160755	
2998000000	-5.78305605922768	164.494122080012	-5.80054640881019	135.289944138984	-5.79128060369769	135.319244398865	-5.88070950376772	172.735760478751	
2998500000	-5.76604656891747	164.617968687138	-5.8079054428767	135.206008940881	-5.79738801315159	135.239267955394	-5.87884599888379	172.815195476201	
2999000000	-5.74676826995144	164.853951315679	-5.80563280946293	135.220637063328	-5.78525833948837	135.207623508474	-5.86699446946996	172.794631525495	
2999500000	-5.7525299118882	165.133193447472	-5.77631905365411	135.364091258489	-5.79386824469806	135.262096829439	-5.86905374054711	172.941401430825	
3000000000	-5.72850813474165	165.291806819363	-5.79341189463356	135.21977037781	-5.78024820631752	135.329048793127	-5.86486855624301	173.00745620204	
