!Keysight Technologies N9917A: A.13.25
!Date: Friday, 27 June 2025 16:52:03
!Timezone: 
!Model: N9917A
!Serial: MY56072049
!GPS Latitude: 
!GPS Longitude: 
!GPS TimeStamp: 0001-01-01 00:00:00Z
!GPS Seconds Since Last Read: 0
!CHECKSUM:0562916868
!Correction: S11(ON U)S21(ON U)S12(ON U)S22(ON U)
!S2P File: Measurements:S11,S21,S12,S22:
# Hz S DB R 50
1000000000	-2.40565444455337	152.34982019919	-6.93492513330014	-102.797519765339	-6.9461985738699	-102.824470206179	-2.77787163990088	151.043647893291	
1000500000	-2.40703098502249	152.336702128129	-6.95433116810025	-102.879935415202	-6.95108314195376	-102.799423172271	-2.77273614921043	151.012274410737	
1001000000	-2.41326879705901	152.349057063991	-6.94531713081683	-102.987475992444	-6.94503849483531	-102.914697606779	-2.7813154636548	151.044026615163	
1001500000	-2.41261401325128	152.362624106529	-6.94577616006484	-103.030104063396	-6.94779316317209	-103.031701106647	-2.78377583209648	151.020222070149	
1002000000	-2.42340627719613	152.223650086453	-6.93102597345741	-103.061163320731	-6.94600055082747	-103.059771810094	-2.78869037439696	150.997817960631	
1002500000	-2.42430559753841	152.276041196617	-6.94335059842203	-103.247510559146	-6.94744871690261	-103.111987811884	-2.78711821211462	151.004988098092	
1003000000	-2.43097089853931	152.243350335214	-6.94805602856057	-103.18674210798	-6.94574473579595	-103.18526470129	-2.78669823098355	151.044404152223	
1003500000	-2.43679099063983	152.202065290127	-6.94430952769447	-103.391459814494	-6.94129688496966	-103.293716657218	-2.79240484418643	151.06577302688	
1004000000	-2.44230810761101	152.206547191343	-6.94825238986721	-103.41347603996	-6.9443295428838	-103.339219595462	-2.7991951712649	151.03329894454	
1004500000	-2.45122949439656	152.146626748313	-6.94051465161771	-103.45870221271	-6.95213294834749	-103.478259159413	-2.80334348691269	151.041679197008	
1005000000	-2.450041567477	152.123388618507	-6.94383017423638	-103.53129531468	-6.96057319422246	-103.528246073411	-2.81204926781269	151.025136369572	
1005500000	-2.46732046056834	152.082541761293	-6.9430282008861	-103.580934636172	-6.94339989360298	-103.563630875303	-2.80928102322063	151.017881834148	
1006000000	-2.47435860281123	152.069384741393	-6.94985762365371	-103.704438597705	-6.95372631182676	-103.685548069763	-2.82643700093284	151.02476134082	
1006500000	-2.47823908383654	151.997174175442	-6.94885120430595	-103.748980572004	-6.9544387425371	-103.764766610232	-2.83121917013901	151.003780228453	
1007000000	-2.48118602120421	151.985122933729	-6.95409425943861	-103.794182087415	-6.96002104817116	-103.747239668189	-2.82879323281728	150.9741111171	
1007500000	-2.49795341723291	151.932775579175	-6.94143056656659	-103.898893173261	-6.95665383986293	-103.876730364693	-2.83378909198285	150.963724140274	
1008000000	-2.50188963763051	152.014419404893	-6.95192537228741	-103.92617347877	-6.95726584134183	-103.956231422964	-2.84338271047371	151.024077691479	
1008500000	-2.51003421262449	151.907391624224	-6.94808586647391	-104.007010287117	-6.94856978849485	-103.972897013283	-2.85043392481106	150.960683167128	
1009000000	-2.52158889193032	151.887889897188	-6.96321509995011	-104.135598092013	-6.95579021085229	-104.055521628107	-2.85632670683474	150.962625764519	
1009500000	-2.52339831282421	151.907225540893	-6.96671734018513	-104.138361029332	-6.96423700578458	-104.085002067881	-2.85841574899538	150.928147736684	
1010000000	-2.54014680406985	151.799555263059	-6.9663804403813	-104.197595412653	-6.96798866316179	-104.172494812315	-2.86687118423544	151.006500499769	
1010500000	-2.5409314495013	151.773677666487	-6.96687939518895	-104.258413509892	-6.96374506198784	-104.275396146382	-2.87232336950905	150.944823715408	
1011000000	-2.55170129444601	151.745605945847	-6.96778545967984	-104.371362392348	-6.9727767026674	-104.365501759738	-2.8820264482346	150.936560092561	
1011500000	-2.5723046662538	151.688347592056	-6.97183807314194	-104.372117921087	-6.97090717458139	-104.351942610489	-2.88004094720033	150.940687308126	
1012000000	-2.56851685197817	151.661070574227	-6.96241992440914	-104.417942263507	-6.97234830760842	-104.348291989594	-2.88568839262467	150.868821837915	
1012500000	-2.57962124557001	151.671247900105	-6.9640148017219	-104.550780608892	-6.97773726389862	-104.504911764669	-2.89818740553915	150.907166543207	
1013000000	-2.59096108291847	151.539390772876	-6.98351904846242	-104.542846170649	-6.97642578108981	-104.536289485301	-2.90328823011894	150.845681246608	
1013500000	-2.60599173295247	151.526879003188	-6.9779063929305	-104.654158248308	-6.98047477238669	-104.639447306188	-2.90996668429723	150.830335356992	
1014000000	-2.61337782913405	151.525471127648	-6.98730433165011	-104.699922176961	-6.99421211600028	-104.638895200524	-2.91146683815567	150.844953431816	
1014500000	-2.61501298660987	151.502251982882	-6.98488639929312	-104.809191652582	-6.97947410070835	-104.755351975122	-2.92036310573869	150.820697283495	
1015000000	-2.63630424099887	151.38465547313	-6.98281326171653	-104.822389605612	-6.9886847322398	-104.789497238948	-2.9280968976613	150.77563721903	
1015500000	-2.63769451723628	151.380075465992	-6.99240587303755	-104.878475069728	-6.98803590980965	-104.765309824394	-2.93706172723645	150.740806414001	
1016000000	-2.65312473425966	151.360461558625	-7.00614491388846	-104.916104957156	-7.00034266732006	-104.887050814132	-2.93773921070253	150.761797243522	
1016500000	-2.66515072000198	151.258571642999	-6.99840404951807	-104.99276500282	-6.99231841480079	-104.942267706004	-2.95130032619981	150.750190927318	
1017000000	-2.66679648633859	151.258354235643	-7.00297956586293	-105.066173730208	-7.00900328769039	-104.9994718751	-2.95027737494579	150.756274886434	
1017500000	-2.67534867256136	151.16273712753	-7.0068751631594	-105.136722109545	-7.00135838952879	-105.033028177202	-2.95898741070143	150.646794457935	
1018000000	-2.68491956065553	151.150524074937	-7.00090056966886	-105.188234376814	-7.01060880195136	-105.13309324605	-2.96698889002606	150.649627916481	
1018500000	-2.69468717862941	151.090995346561	-7.01107930173356	-105.276135661576	-7.00821537193328	-105.129246723106	-2.97645560998724	150.623417654557	
1019000000	-2.70344749199384	151.004684075677	-7.00701199529493	-105.308721152466	-7.00351368465217	-105.219386712344	-2.98022966270658	150.584358543225	
1019500000	-2.71820093126486	151.044606775711	-7.01341617729101	-105.294146569258	-7.01864899409836	-105.229683397294	-2.98036175457828	150.61157461138	
1020000000	-2.72466941848135	150.95233744562	-7.02498923832601	-105.416197507991	-7.02184916063907	-105.373975985519	-2.98810033282435	150.534751324504	
1020500000	-2.7259439325045	150.903099878539	-7.01793198512297	-105.393517473374	-7.02401621181275	-105.331490921153	-2.99053059771807	150.47104455079	
1021000000	-2.74554040337653	150.855896803391	-7.03442707068121	-105.445219586513	-7.02070403685686	-105.344733859322	-3.00599423828952	150.443858687154	
1021500000	-2.74132522093076	150.856751860603	-7.03719671929191	-105.445971340806	-7.03737624823786	-105.423250002308	-3.00917499911949	150.40563674363	
1022000000	-2.77174284804851	150.786352385854	-7.0334939462026	-105.553741881978	-7.03452716203444	-105.480020063511	-3.00836730383864	150.382588037334	
1022500000	-2.77134339520502	150.699061138577	-7.04355379764063	-105.54433523176	-7.03173708321663	-105.593503880275	-3.0248727129046	150.355494857751	
1023000000	-2.78122656488698	150.678956557546	-7.04345608011561	-105.591887182676	-7.0393282241585	-105.648892715211	-3.01402469952273	150.325183101287	
1023500000	-2.78694007274815	150.588514235537	-7.05391230461683	-105.647319951456	-7.04604852575364	-105.57445179631	-3.01814373876525	150.272579219203	
1024000000	-2.79597891539404	150.532710207218	-7.04932895511247	-105.701335179279	-7.04395536772134	-105.70627773086	-3.03011262719195	150.203618342222	
1024500000	-2.80470993345063	150.476405121298	-7.05659286470274	-105.777098599217	-7.05481595158563	-105.712327022778	-3.04369449897792	150.139482674821	
1025000000	-2.82273131380606	150.453016880932	-7.06339174846097	-105.719783770861	-7.05859307071279	-105.742797203755	-3.05082696738443	150.156343854057	
1025500000	-2.81617816928993	150.42163752502	-7.05974354731388	-105.797366935933	-7.06726034500178	-105.814397215928	-3.04934084748884	150.138827772619	
1026000000	-2.82853434015928	150.297869185111	-7.06440072901129	-105.92468395193	-7.07048225790501	-105.797274145466	-3.06095854528653	150.104636287935	
1026500000	-2.83388057863574	150.27775544607	-7.07264495250237	-105.869298068331	-7.06732131742874	-105.812767769578	-3.06469332448283	150.013080308434	
1027000000	-2.84557822630365	150.219109789858	-7.07810110435056	-105.898155484839	-7.07744448983348	-106.008927664485	-3.06546262932811	150.015612340412	
1027500000	-2.85202592990561	150.15622587514	-7.07734598146929	-105.981914328895	-7.05939130542418	-105.878895030848	-3.07241605605385	149.946684865907	
1028000000	-2.86235701916991	150.116221651519	-7.09008097453765	-105.941728880108	-7.07246857431651	-105.920739720179	-3.07956282922768	149.894113000348	
1028500000	-2.86094573665628	150.150617632551	-7.07023690984223	-105.977819035116	-7.07038719881021	-106.031736684148	-3.07488141248469	149.773073922362	
1029000000	-2.86389996555635	150.01564036083	-7.0842110270959	-106.088687885896	-7.07392391343862	-105.987650797023	-3.08580883322974	149.790103924449	
1029500000	-2.88662274901146	149.954640698006	-7.09077421875325	-106.020731261094	-7.10318173790173	-106.049868500622	-3.09028767725367	149.699344672565	
1030000000	-2.87864744375161	150.006598069309	-7.09640987620167	-106.001986291843	-7.0869473014093	-106.022965666589	-3.09175831863535	149.650332261068	
1030500000	-2.8854633419263	149.885882468591	-7.09702081708286	-106.103869644939	-7.09716787322992	-106.115826283121	-3.0904098845229	149.579643334177	
1031000000	-2.89190384939983	149.793441327251	-7.09875873447762	-106.248089757855	-7.09633917376764	-106.070346710435	-3.09581538658258	149.581025286974	
1031500000	-2.9001294440334	149.735164156208	-7.10387842127928	-106.113231682362	-7.10464223462319	-106.149612693336	-3.10905656165998	149.528970639886	
1032000000	-2.90489684106343	149.736765193682	-7.10747921095463	-106.174824843893	-7.09920565579529	-106.30367599244	-3.10342946461423	149.444494684715	
1032500000	-2.91235597463856	149.680095803228	-7.11337028250504	-106.183001446366	-7.09738894829651	-106.235139388778	-3.11506777745436	149.410748365714	
1033000000	-2.91879491532615	149.606580756397	-7.11146578179209	-106.205871370743	-7.11949522672325	-106.345836626988	-3.1077618841485	149.353211983297	
1033500000	-2.92322383272451	149.533475590244	-7.12627873309833	-106.321261919125	-7.11567470895966	-106.300227553672	-3.12079604780873	149.246975029802	
1034000000	-2.92602505909611	149.407491188423	-7.12475279440671	-106.296727605269	-7.10483423353401	-106.282102183691	-3.11646461672109	149.196366971017	
1034500000	-2.93566578465792	149.419429026171	-7.11418157610609	-106.350853595347	-7.10781351904864	-106.356793922704	-3.10800807117629	149.143950488325	
1035000000	-2.92397639606378	149.337211614847	-7.12044346758591	-106.304999784638	-7.12100732330451	-106.297378975627	-3.1157260036839	149.075894229398	
1035500000	-2.94246945514099	149.354615753725	-7.11766871820088	-106.397005520531	-7.12083635244291	-106.434401912854	-3.11369374035057	148.974811338	
1036000000	-2.93997258564663	149.3194982198	-7.13455197127553	-106.388407495317	-7.13328781394027	-106.434473199038	-3.12122707962827	149.068015609521	
1036500000	-2.96268401174058	149.249501267153	-7.13003969174404	-106.447902197488	-7.12366099381553	-106.4636926015	-3.12184183927343	148.876120372754	
1037000000	-2.95281798257736	149.183172578048	-7.13568828701909	-106.393271626714	-7.12983540073406	-106.397597396233	-3.1202551240275	148.878581521722	
1037500000	-2.95176138811123	149.100144167512	-7.13301627860128	-106.439602984263	-7.13077430892201	-106.453865717467	-3.12807627465501	148.790268065443	
1038000000	-2.95475103573737	149.052365468132	-7.13684786295001	-106.504158336203	-7.13115866008359	-106.525542952649	-3.12867001573975	148.749524501271	
1038500000	-2.96015073490265	149.020394954212	-7.11915676236092	-106.483908886752	-7.11916103804934	-106.496305255941	-3.13246069531668	148.656424841546	
1039000000	-2.95761488228023	148.96164189615	-7.13231226220149	-106.471699358641	-7.11531919611122	-106.525738602459	-3.12575979428933	148.574098699401	
1039500000	-2.96356642202446	148.932262595141	-7.14040842200614	-106.547678123128	-7.12969490840032	-106.605034414992	-3.12934535157413	148.502661068047	
1040000000	-2.95825403496801	148.91900254093	-7.13902371243032	-106.59254508959	-7.14171250910877	-106.576289752922	-3.1379852156691	148.486398867847	
1040500000	-2.95574143070239	148.938592981029	-7.1461722915739	-106.568625181587	-7.13969072069931	-106.572436974678	-3.13199794218828	148.348151055881	
1041000000	-2.96095677386506	148.753292395778	-7.13422802033493	-106.595940725299	-7.12802775895445	-106.705477827773	-3.12760421756411	148.343515567535	
1041500000	-2.95057016029406	148.744985662216	-7.14670797681166	-106.51431533788	-7.15012470188982	-106.590635845542	-3.12294355640016	148.279158330861	
1042000000	-2.96879564202424	148.735421234432	-7.15419704091339	-106.552079069956	-7.15444365940167	-106.609624725218	-3.12686173374449	148.227328562945	
1042500000	-2.96300247588464	148.616963050993	-7.15126298824249	-106.650774530018	-7.13425295350305	-106.714585516572	-3.11209893478829	148.145160581222	
1043000000	-2.96485672830791	148.583425519669	-7.13028434097991	-106.687526029661	-7.13542166658036	-106.668664513437	-3.12029502658214	148.080227036721	
1043500000	-2.96385541059336	148.547783735161	-7.13785248676008	-106.685306723574	-7.14415159665119	-106.674564268877	-3.12364919784652	147.998385749012	
1044000000	-2.95261043133843	148.526614033882	-7.14413487275594	-106.615755596339	-7.14371410172123	-106.668614555763	-3.12144746484416	147.982827122313	
1044500000	-2.95399742418327	148.45427442134	-7.13169162863647	-106.731046622447	-7.14803422230215	-106.756161866027	-3.11403636865642	147.904739243335	
1045000000	-2.94233266552669	148.463834271621	-7.13286450574344	-106.599572327062	-7.14704529111875	-106.704960122403	-3.11177802398695	147.798703344413	
1045500000	-2.95115250975139	148.384056064331	-7.14842502653208	-106.778717181743	-7.13271465121868	-106.709924439415	-3.11058731752497	147.750931060492	
1046000000	-2.95265420276548	148.381749464755	-7.14764919063179	-106.774973143073	-7.14166871740675	-106.754147879387	-3.11572795936519	147.702958321257	
1046500000	-2.95621959316454	148.371908214368	-7.13782562332158	-106.742859356213	-7.14995439972935	-106.747061423734	-3.11181928166358	147.614554956295	
1047000000	-2.9485608076445	148.299722400518	-7.1455668838765	-106.764683891755	-7.1299220673932	-106.843639590846	-3.09849948321832	147.533993055742	
1047500000	-2.93843602584004	148.20611591273	-7.1480613141117	-106.860060969814	-7.14415229860534	-106.81637076086	-3.09832371104357	147.439918559579	
1048000000	-2.9372921795912	148.167037391403	-7.14881173708676	-106.88499356836	-7.15498622655856	-106.801308086031	-3.09844615138465	147.406380135589	
1048500000	-2.92979370550238	148.213358540597	-7.14343279384005	-106.839596288208	-7.14786878716601	-106.890105228242	-3.08742645591839	147.360430329054	
1049000000	-2.93732062786642	148.101205112905	-7.15251040717371	-106.86540884782	-7.12815636688308	-106.866837420808	-3.10787862358536	147.322771366111	
1049500000	-2.9275985430502	148.121304706214	-7.14283349427596	-106.957092048792	-7.13384675782586	-106.948079263692	-3.0899056216528	147.17187464499	
1050000000	-2.93098159595526	148.093465746468	-7.14685867318214	-106.83832701076	-7.14246271093154	-106.899231797081	-3.09725810748227	147.126875459471	
1050500000	-2.91891618521218	148.10098000356	-7.13613742914387	-106.921063318118	-7.13312754590742	-106.921706090754	-3.0851222983102	147.099287419122	
1051000000	-2.90279831641427	148.067692824173	-7.13005181055258	-106.909666783157	-7.12918594859671	-106.890680057708	-3.08022871011318	147.02345802059	
1051500000	-2.89316855049022	147.951615727939	-7.13405131063753	-106.923480530307	-7.12169535627593	-106.982830643014	-3.08008768943817	147.032381982841	
1052000000	-2.89389150017237	147.951685087708	-7.13450254785174	-106.937008675017	-7.13456947829161	-106.915239173806	-3.07412194587536	146.879748661594	
1052500000	-2.89475278113857	147.976765843065	-7.12288452474564	-106.955755557605	-7.12338063369553	-107.036124159375	-3.06854176637547	146.820218637194	
1053000000	-2.88900907735512	147.917263458853	-7.11501483787807	-107.003141874402	-7.1167667152503	-106.94401035817	-3.07209997232759	146.734957084092	
1053500000	-2.88444208258256	147.976027174069	-7.11814539835984	-107.061374044611	-7.11323509970452	-107.017503688854	-3.06366256709201	146.682697369408	
1054000000	-2.87781815242264	147.947400756575	-7.12943345703	-106.914609449885	-7.11586918519054	-107.042423354148	-3.06307106709334	146.611649396811	
1054500000	-2.8769858374067	147.847206806115	-7.11794573061862	-106.977905016806	-7.10550142046037	-106.96047463864	-3.04904944702816	146.606063108275	
1055000000	-2.85701803620337	147.879619446839	-7.10869390733662	-107.063400770777	-7.0984910923527	-107.071446353226	-3.05025107953749	146.52333129501	
1055500000	-2.86047424798486	147.895814081795	-7.12192163055538	-107.055266918252	-7.1189216739215	-107.077426094205	-3.04834062835932	146.503385719766	
1056000000	-2.8503925994492	147.801177670969	-7.11495282295936	-107.069962712263	-7.11420122756264	-107.102580920354	-3.04228975687695	146.436740606528	
1056500000	-2.83751818057376	147.755338278238	-7.11602451634139	-107.159371852018	-7.11100460824412	-107.147293767078	-3.03817423532078	146.389448936587	
1057000000	-2.83459121831589	147.790615213715	-7.1029874748604	-107.193936803662	-7.11014622101956	-107.039554376742	-3.02630602820177	146.288462525525	
1057500000	-2.8267029768605	147.809055715235	-7.10363069158404	-107.088753596275	-7.09537723743422	-107.106414980051	-3.02733570150287	146.222689335761	
1058000000	-2.82342563919726	147.775009314337	-7.09672913357437	-107.165217184682	-7.09249187640625	-107.109354142167	-3.01456870468594	146.200036414963	
1058500000	-2.79642910265382	147.708131715951	-7.09534339972214	-107.190126897764	-7.08691829408782	-107.210109131264	-3.01078294609653	146.136350490464	
1059000000	-2.80105655843724	147.763249629505	-7.08458618180223	-107.151328453496	-7.09068624000867	-107.172318528807	-3.01210584230609	146.114182357696	
1059500000	-2.7939725340064	147.720123199813	-7.08874525373235	-107.206142388989	-7.08381703300386	-107.30998515591	-2.99480846525645	146.083394412205	
1060000000	-2.78881958781249	147.762953701002	-7.08295610714995	-107.232230031027	-7.07182657851505	-107.267319468914	-3.00096114018257	145.976460493017	
1060500000	-2.77629148557876	147.733229170574	-7.08294539577283	-107.178452892276	-7.07882500603151	-107.281967869487	-2.99405567227729	145.948542615236	
1061000000	-2.77255247958819	147.707902446558	-7.0776047978239	-107.222554344415	-7.07951188234584	-107.19902642047	-2.98322107547397	145.974365398585	
1061500000	-2.76297196814669	147.676096881441	-7.07574103145693	-107.254221177203	-7.05201836822435	-107.260895788015	-2.98939125723982	145.82496595621	
1062000000	-2.74982460860501	147.677495711224	-7.0762661084142	-107.309555941715	-7.06442758879232	-107.340719885618	-2.96904618009633	145.796582643965	
1062500000	-2.74322356983391	147.669883185186	-7.05544754706742	-107.33183857396	-7.05396698657329	-107.269357854606	-2.96637576124848	145.79494030518	
1063000000	-2.72892976834776	147.699990145244	-7.05075422578368	-107.362698686459	-7.05784415932332	-107.299034726079	-2.96388540018022	145.698882405063	
1063500000	-2.73277427050386	147.694777429671	-7.05032838277197	-107.324642750455	-7.06240210287056	-107.44056227663	-2.95466345713078	145.671998982992	
1064000000	-2.721365222572	147.656716056749	-7.03992522813744	-107.409415954912	-7.06274123778654	-107.449433239575	-2.95253022299252	145.581214068	
1064500000	-2.7078573754986	147.699451699911	-7.03882421029257	-107.483353464281	-7.0361255607892	-107.469603732585	-2.94637726861524	145.584244254605	
1065000000	-2.70141425381137	147.677815232831	-7.02636623084923	-107.453598223146	-7.04004146085502	-107.415726880252	-2.94273314174587	145.528195780166	
1065500000	-2.69322506509026	147.717230391793	-7.03269562906677	-107.501109835858	-7.01958232573053	-107.515060952593	-2.94740141495224	145.52496689122	
1066000000	-2.68520216763881	147.747416007421	-7.01946162184153	-107.459065947347	-7.02153615589069	-107.52167188632	-2.93030231750896	145.435061951489	
1066500000	-2.67421072968769	147.673342354398	-7.00994589985803	-107.496574452001	-7.00938914172405	-107.588133271586	-2.92544094117843	145.433564918289	
1067000000	-2.66793867711215	147.758492848889	-7.01844480959891	-107.568272717614	-7.01112018729624	-107.532306973603	-2.9244486852323	145.465996681284	
1067500000	-2.65957340683506	147.693885950268	-7.01140852835179	-107.601529811028	-7.00157200406353	-107.629558175187	-2.92018779635005	145.371219793797	
1068000000	-2.649254294342	147.74293763369	-7.00942256161366	-107.715547760691	-7.0033347770582	-107.635933415196	-2.90624494991546	145.360874153491	
1068500000	-2.65002345786442	147.732076901413	-6.99136376115116	-107.672387260365	-7.00020276454429	-107.633878347378	-2.9108120297736	145.347798294875	
1069000000	-2.63886310920381	147.697591017393	-6.99188884352841	-107.747939842331	-6.98850609460501	-107.753331356612	-2.90848893894432	145.287004812281	
1069500000	-2.63715432997814	147.739877982696	-6.99784071356889	-107.765759791272	-6.99526808951112	-107.730763170784	-2.89803917620827	145.2756965922	
1070000000	-2.62335196219948	147.727265063624	-6.96920541716528	-107.731100031254	-6.97148817593574	-107.831306187192	-2.90438288048892	145.234244526313	
1070500000	-2.61177458607072	147.776652152276	-6.98038005280761	-107.765520202273	-6.98248000068106	-107.74545707933	-2.89141375765171	145.19625712703	
1071000000	-2.597294729474	147.783659938692	-6.96928212687168	-107.814599633455	-6.96662339571129	-107.88346296025	-2.89272989052765	145.163191468251	
1071500000	-2.59582962320968	147.80512668198	-6.95234238947911	-107.899947961492	-6.96909892690923	-107.846551009541	-2.88680131557047	145.144237835362	
1072000000	-2.58634445147568	147.804252670391	-6.95794113050747	-107.869300720103	-6.94949209335606	-107.916722744562	-2.88310709539174	145.066987310649	
1072500000	-2.58369485376492	147.815754759157	-6.94698589169968	-107.896511565046	-6.95149541556074	-107.971100747349	-2.87748773728099	145.051542499144	
1073000000	-2.57825967578772	147.815977578305	-6.95099493430897	-107.924471395212	-6.94297427004951	-107.967353961321	-2.88026544914993	145.077883891218	
1073500000	-2.56211170827677	147.84770262238	-6.9370361471479	-107.953620421793	-6.93611984480522	-108.032450957494	-2.86984821492411	145.070441216672	
1074000000	-2.55684658690355	147.854101686098	-6.93102342087279	-108.066400689666	-6.9370816928702	-108.104058966412	-2.86753243944087	145.035486535665	
1074500000	-2.54557736300534	147.851246404012	-6.92402333100999	-108.108610356292	-6.93516783309568	-108.075273956631	-2.86425039459745	144.999051554568	
1075000000	-2.5475127481231	147.920093212364	-6.91655387761229	-108.095088223356	-6.91743098524884	-108.131169751757	-2.86000894974368	144.955112852193	
1075500000	-2.53585806842239	147.888986207211	-6.9098539699563	-108.102348187431	-6.91922155787096	-108.182825742943	-2.86154188774692	144.970131401978	
1076000000	-2.53742649512952	147.931649697652	-6.90561277348102	-108.190421794857	-6.91086570635585	-108.298826584783	-2.85877892236077	144.963308933279	
1076500000	-2.51837480225433	147.905005081462	-6.89559815385965	-108.268237869156	-6.89214152821785	-108.300738284294	-2.85202697904067	144.935535814927	
1077000000	-2.52269384470396	147.958758601396	-6.89657158917419	-108.289613302859	-6.88971236848252	-108.280631983681	-2.84871570082118	144.934007846499	
1077500000	-2.50977656474809	147.960202851834	-6.88430601508225	-108.363475216204	-6.88970177765367	-108.410714295232	-2.84924910907445	144.925686528244	
1078000000	-2.51219300386547	147.964379995829	-6.87666467950022	-108.38773070996	-6.87641891426546	-108.455496431994	-2.85024241189436	144.878620394079	
1078500000	-2.49868548001676	147.987148806245	-6.86342182771233	-108.484058853003	-6.86210214813312	-108.520852317884	-2.84526203123832	144.858229964343	
1079000000	-2.49642779406795	147.997348305595	-6.86881853147179	-108.39744378311	-6.87290173147258	-108.547677545692	-2.84287230691688	144.862360638126	
1079500000	-2.48961440268209	147.977379058652	-6.85196968529366	-108.613656832625	-6.85635889415697	-108.552725990591	-2.83957468346106	144.894063531254	
1080000000	-2.48239370040692	148.049112081141	-6.85804656911976	-108.520645879312	-6.85747148462742	-108.653208826645	-2.84187651547911	144.814805609228	
1080500000	-2.47986736463013	148.014120208065	-6.85104074255729	-108.715318989976	-6.8539410798329	-108.684005426272	-2.8538148184864	144.850217695009	
1081000000	-2.47955069979335	148.079273645536	-6.84659926710615	-108.691816654703	-6.83862287870962	-108.764287547982	-2.84504100104668	144.809575570898	
1081500000	-2.4697378545165	148.038415709429	-6.83499369611778	-108.785429353036	-6.83280263093571	-108.862939740161	-2.8455930094457	144.815008021552	
1082000000	-2.46645502780719	148.070090487296	-6.82199810847013	-108.79107525914	-6.83096825023359	-108.900147361566	-2.85153316866269	144.84899017716	
1082500000	-2.4691479326975	148.039598762377	-6.80896629068268	-108.892174525843	-6.82093577294956	-108.954639359221	-2.84149458862254	144.786637870247	
1083000000	-2.46517263701144	148.097709728134	-6.82037846028454	-108.920123745591	-6.81238019471708	-109.016751490647	-2.84231312016345	144.781781111915	
1083500000	-2.45440759054625	148.07067826042	-6.80102477503618	-109.015474323284	-6.8040280683087	-109.079528468216	-2.84128955341382	144.780421238342	
1084000000	-2.4559030377672	148.080812218635	-6.79861547549905	-109.022472656184	-6.80171339489578	-109.050896411808	-2.84150303909015	144.766480244248	
1084500000	-2.45634919924841	148.116282165522	-6.79158915510376	-109.097748109033	-6.80144675092099	-109.19244008491	-2.84235733871552	144.779637192053	
1085000000	-2.44964304571679	148.101387956273	-6.79349164709337	-109.167589963211	-6.78556037545562	-109.249711600599	-2.84596998931909	144.818422755094	
1085500000	-2.45529787512561	148.141129028114	-6.78559191092594	-109.215061769167	-6.78685100870611	-109.302473893799	-2.84968116897846	144.785782213248	
1086000000	-2.44957171615596	148.133233013708	-6.77614257181087	-109.346010163465	-6.77875828011462	-109.355929134178	-2.84333212694127	144.784308979299	
1086500000	-2.45279700350873	148.113845761358	-6.77493737330277	-109.400510752112	-6.77458864352337	-109.424120408251	-2.8476268715445	144.728449144328	
1087000000	-2.44534072017762	148.12897024344	-6.7716408548601	-109.448870965422	-6.75858975841557	-109.498670789889	-2.85271528017556	144.736396331874	
1087500000	-2.44499960873186	148.141681809188	-6.7664574740973	-109.561332788795	-6.76605289434922	-109.61545152512	-2.85466777786431	144.766614324828	
1088000000	-2.45204121474463	148.145339203276	-6.75509816250709	-109.571767255475	-6.75795861914964	-109.615160850631	-2.85685806436207	144.74717381487	
1088500000	-2.45090569084432	148.151846040478	-6.73726577248984	-109.681672677535	-6.74206814011355	-109.724799865467	-2.8636678395062	144.732324639373	
1089000000	-2.44749137320242	148.120488260677	-6.73844244409253	-109.702286358881	-6.73336917653449	-109.741829622007	-2.85577119881816	144.772233016263	
1089500000	-2.44870453622649	148.171905051662	-6.73687775741253	-109.783431137515	-6.74012351334964	-109.830973187959	-2.86393957765456	144.733420339942	
1090000000	-2.45206074899357	148.141345193907	-6.72998780815976	-109.818736507452	-6.72916226672947	-109.913766569862	-2.86809230189858	144.747632615321	
1090500000	-2.44826428194689	148.182506683445	-6.72952129570789	-109.930629518664	-6.73554992767283	-109.976842308859	-2.87526404572199	144.751849506636	
1091000000	-2.44956633558028	148.167278134729	-6.72504954248087	-109.963425164685	-6.71853898745719	-110.016010100336	-2.87404436057415	144.732289206402	
1091500000	-2.44892858400819	148.115276544577	-6.72225329979831	-110.071702709514	-6.72548805468563	-110.119474534324	-2.87853020325084	144.758764318367	
1092000000	-2.4542586603586	148.116055235047	-6.70557690879698	-110.151877906672	-6.70403681306137	-110.176291122209	-2.88232665527967	144.725045444693	
1092500000	-2.46245217710402	148.129475931498	-6.69910452532634	-110.175293144611	-6.70169416080824	-110.240503681689	-2.8868116164882	144.73282981165	
1093000000	-2.45679286618334	148.091943528977	-6.69573927682774	-110.275708811155	-6.70318238387857	-110.307568635457	-2.89132467453993	144.796494525191	
1093500000	-2.46708304774512	148.117417128779	-6.6913321671757	-110.345774783235	-6.70231765913051	-110.382852615114	-2.90284902944602	144.75364328038	
1094000000	-2.47401313163377	148.078818296407	-6.69732193208962	-110.502073395489	-6.68953893378205	-110.437392369385	-2.90232986946994	144.747625599944	
1094500000	-2.47635885094567	148.128089476614	-6.69054914727309	-110.571329010946	-6.68645125868746	-110.494783866548	-2.90509464470543	144.74112959696	
1095000000	-2.48092424967823	148.090296344417	-6.68251548224226	-110.578086095886	-6.68601284603451	-110.5465720846	-2.91616983524482	144.743054229578	
1095500000	-2.4899616662352	148.054308235602	-6.67320283042932	-110.708261461792	-6.6813832866494	-110.663771166222	-2.92174071826687	144.739667112231	
1096000000	-2.48833825945462	148.022118209516	-6.68133403143063	-110.668422397507	-6.67279841512944	-110.691256458508	-2.9220051703504	144.698576095854	
1096500000	-2.49289759937945	148.01880530724	-6.68234759026377	-110.766198489068	-6.67894372989478	-110.795688920193	-2.92829967973584	144.723762320032	
1097000000	-2.50217193146353	147.965362093898	-6.67662394421745	-110.907454913726	-6.67414289911509	-110.928865597975	-2.93786676922362	144.760010135068	
1097500000	-2.50334934567644	147.961073054497	-6.65426750497127	-110.98422163826	-6.66946087339135	-110.988857050193	-2.94335658568243	144.761419185932	
1098000000	-2.51577215593497	147.939290655831	-6.66660916662795	-110.955858215736	-6.66854157162571	-110.937125275176	-2.94810959551272	144.738954161609	
1098500000	-2.52461748528421	147.96958830653	-6.66435792709	-111.097734946135	-6.66155169954135	-111.085762871851	-2.95139059955253	144.718460414851	
1099000000	-2.52252590200153	147.897318734996	-6.65666335189126	-111.170042355155	-6.65660977358958	-111.131130620462	-2.97067441035546	144.693956935107	
1099500000	-2.53628932763367	147.941977518526	-6.65872671756478	-111.232684500713	-6.66261358813254	-111.215581064144	-2.96882462270221	144.751453287226	
1100000000	-2.54300494467159	147.842010230275	-6.65514805462844	-111.253826792423	-6.64957725699082	-111.260887527561	-2.96905308243899	144.70158307668	
1100500000	-2.54686128674695	147.808016831376	-6.65847688155072	-111.395007173764	-6.66009927606216	-111.353608404955	-2.97446441325592	144.722359562213	
1101000000	-2.55554488778979	147.763423242775	-6.6461400940288	-111.473515960378	-6.6465786545667	-111.415896781132	-2.98999608956686	144.655213152515	
1101500000	-2.56357357421126	147.747642908882	-6.63995041907648	-111.549260875021	-6.64969802067531	-111.530652039732	-2.99299872807087	144.689099524997	
1102000000	-2.56438641842013	147.756356057623	-6.64761953124631	-111.570045617966	-6.64375688308233	-111.552822640485	-2.9966297334313	144.653623665109	
1102500000	-2.58785102679443	147.703308933626	-6.63724878357779	-111.737649210693	-6.64629173573028	-111.67442815504	-3.0110877039063	144.64243191738	
1103000000	-2.59018037387907	147.617826817804	-6.6393881947793	-111.77459549617	-6.64434094535756	-111.7715956786	-3.01628682073261	144.655379257128	
1103500000	-2.59886883726663	147.590670818674	-6.63421100872672	-111.898904770641	-6.63811719609004	-111.813874369356	-3.02931413463738	144.669932710434	
1104000000	-2.60910043396302	147.53028423069	-6.63561013222219	-111.895423541726	-6.64285852993738	-111.868638725944	-3.02701602467415	144.633401624249	
1104500000	-2.62072666693679	147.503245237484	-6.6331299377052	-112.04455163077	-6.63319586678015	-111.953540374136	-3.0361970709888	144.633525616084	
1105000000	-2.62642444366244	147.438776812637	-6.62847627161625	-112.10148401287	-6.6231398728792	-112.019639198652	-3.04448134908572	144.592570685279	
1105500000	-2.63788291803174	147.387994651443	-6.63028909994013	-112.178416059347	-6.63606673404978	-112.15460284453	-3.06009295022733	144.628120111671	
1106000000	-2.6442425038983	147.396517915436	-6.62716998367986	-112.223312140431	-6.63262529822691	-112.152868839682	-3.06640274424847	144.532627228915	
1106500000	-2.66130603840387	147.30670521393	-6.63802848890628	-112.307199007191	-6.63610754834347	-112.237599542574	-3.06878218933659	144.560155918547	
1107000000	-2.68766911455499	147.243037651403	-6.63816884768138	-112.405406180374	-6.63563403293134	-112.304865148926	-3.07834169741641	144.60755519128	
1107500000	-2.68265789530012	147.209965981757	-6.62662613756855	-112.501142681677	-6.63614411780523	-112.390031282136	-3.08243633972119	144.563589968224	
1108000000	-2.69838747787485	147.104978517569	-6.63147585073963	-112.48016942662	-6.6312923706069	-112.397508744977	-3.09380807565682	144.556193161385	
1108500000	-2.71110136908781	147.076674374048	-6.63117088629537	-112.64018873051	-6.63707263232381	-112.606362562133	-3.09942318864894	144.532412369027	
1109000000	-2.72108187146608	146.964610589448	-6.62983973150159	-112.696825128545	-6.63546307748186	-112.615087408719	-3.10847598088394	144.496813543975	
1109500000	-2.73329527955706	146.952544451684	-6.63235116649832	-112.73335663563	-6.63051151083225	-112.765308233468	-3.12056091379697	144.510770251426	
1110000000	-2.74538192700297	146.915182855451	-6.63065201530344	-112.835957815819	-6.63428104981027	-112.83097602177	-3.13649521532106	144.457219026943	
1110500000	-2.74432487037206	146.774573431657	-6.633023372637	-112.924730673064	-6.62106759653975	-112.839473334687	-3.13397631147511	144.494519021208	
1111000000	-2.76937217244567	146.730188562473	-6.63252167571912	-112.989825711001	-6.63289429990403	-112.917118643424	-3.15052186685635	144.436998288972	
1111500000	-2.77879484047316	146.657986066082	-6.63423831698155	-113.057441498824	-6.63590887740803	-113.009731536765	-3.15038608250404	144.41355491824	
1112000000	-2.78117184156413	146.555953583218	-6.636428989941	-113.079697028839	-6.62019092047522	-112.945919798917	-3.14831121133788	144.395889748933	
1112500000	-2.80700082450597	146.462739618151	-6.62488017408589	-113.176160414	-6.63981370961357	-113.153615603705	-3.17420519694991	144.311680221235	
1113000000	-2.80852140762179	146.45972541493	-6.64016515927467	-113.228817114194	-6.64587814384777	-113.210180350602	-3.18448177374888	144.305902228109	
1113500000	-2.82490370466628	146.354027498366	-6.62792878222297	-113.332748399463	-6.63346015109197	-113.226379329501	-3.18546389070185	144.311385892699	
1114000000	-2.82964369264916	146.273133143876	-6.62885511571922	-113.328443066334	-6.61851689722533	-113.250737052544	-3.18703693432107	144.23499886616	
1114500000	-2.84617899913727	146.172965470749	-6.63564147968485	-113.469273054499	-6.61617127372569	-113.446556820525	-3.19314133518872	144.259965514655	
1115000000	-2.8554749151526	146.141631084784	-6.64286406800613	-113.461954386265	-6.63735378798128	-113.392817337857	-3.203330033109	144.211581941618	
1115500000	-2.86531754958791	146.002625233395	-6.63024811249815	-113.536094093985	-6.62286124019561	-113.483949099842	-3.20955765837629	144.159925499221	
1116000000	-2.8728558717531	145.989476841502	-6.64080634946652	-113.620880497917	-6.64793107324421	-113.550636700264	-3.22246598023117	144.09297176899	
1116500000	-2.89003163874967	145.938520471476	-6.64306817904288	-113.68012334181	-6.6363949008868	-113.646249702128	-3.23155316909619	144.098579095522	
1117000000	-2.90609571855031	145.767189855247	-6.64165705297399	-113.747580265755	-6.6380098008108	-113.657679046564	-3.23694091287426	144.078735393319	
1117500000	-2.91435245486522	145.68888880277	-6.63967498362791	-113.797488978256	-6.63708208547495	-113.756993204738	-3.23913880068602	144.000814167763	
1118000000	-2.9207298879614	145.626733531848	-6.64531072939201	-113.874782145864	-6.6367447532421	-113.885859099832	-3.24689902134901	144.052168255565	
1118500000	-2.93375774603147	145.543793638678	-6.65539416693573	-113.883244925426	-6.64393702628256	-113.858432232705	-3.25989784394993	144.001369929271	
1119000000	-2.94818218234161	145.360720092781	-6.65456007941091	-113.980927540469	-6.64278783116073	-114.019995307728	-3.27105497032543	143.920690811519	
1119500000	-2.95732376038065	145.279692603655	-6.64721843045586	-114.059014546446	-6.64663113962607	-113.998984373909	-3.2743235173872	143.832845445135	
1120000000	-2.96705306285899	145.2184028109	-6.65698596969352	-114.07750082486	-6.64423342609771	-113.989556053843	-3.27163533572338	143.821786184669	
1120500000	-2.98763399560741	145.184925189452	-6.65991493256285	-114.13976410104	-6.66609608875298	-114.222231917878	-3.27733857173364	143.795515959909	
1121000000	-2.98456588214328	145.068202348633	-6.65131342643393	-114.187336073656	-6.64574568313635	-114.173196917087	-3.29808933238825	143.712665829717	
1121500000	-3.01122967633527	144.944866030159	-6.65684017573649	-114.305615843979	-6.66331675475897	-114.27129493056	-3.29159805292232	143.689463279583	
1122000000	-3.01760099605021	144.832793524702	-6.65271246733577	-114.265557572382	-6.66432351994842	-114.292647829617	-3.31414184562642	143.560623195473	
1122500000	-3.02262731475074	144.760591190706	-6.6675145896257	-114.509275785032	-6.66326470016746	-114.325890006973	-3.30584362307282	143.621344185103	
1123000000	-3.02608869455152	144.713238118793	-6.67716412463744	-114.397539903695	-6.66376656873265	-114.420883007428	-3.31280535099736	143.551211597804	
1123500000	-3.04620765089329	144.519349177587	-6.66665414071088	-114.525362033202	-6.66529228399735	-114.452775491938	-3.31812061915042	143.528716456702	
1124000000	-3.04804388157018	144.475923089203	-6.66525925375485	-114.418842435969	-6.66467440987061	-114.479269076891	-3.31894564387258	143.40673846368	
1124500000	-3.05154280887048	144.362366822411	-6.665915893348	-114.511948016816	-6.65695390557628	-114.559139315586	-3.32504876058475	143.416169036804	
1125000000	-3.07419208121166	144.27070097146	-6.6793942870633	-114.487060969423	-6.66675064916758	-114.548417288699	-3.3304194557054	143.324184923889	
1125500000	-3.07034257136137	144.137559162987	-6.68173736298492	-114.719657754033	-6.68196964939541	-114.659765426335	-3.33536778486054	143.34868693372	
1126000000	-3.08650558524455	144.048628881366	-6.68291019531667	-114.663543570967	-6.67107076575594	-114.743045537467	-3.34270659769714	143.232620585848	
1126500000	-3.10102527214239	143.979455523496	-6.68777385028423	-114.771933620784	-6.67920216050522	-114.785832026273	-3.34140569883394	143.177651333482	
1127000000	-3.09635498348126	143.844539207845	-6.68080365194732	-114.806181720321	-6.69294577497743	-114.847268329095	-3.35224725875526	143.107577668819	
1127500000	-3.11183041929153	143.749437788567	-6.68981673774865	-114.806575023955	-6.69902616694003	-114.8892772058	-3.34551525191893	143.082941717658	
1128000000	-3.12746955949578	143.615105464503	-6.68951062063839	-114.898188163567	-6.68971397680141	-114.891858498512	-3.35060417875447	143.000171780769	
1128500000	-3.12937192533572	143.508865136106	-6.69781204426761	-114.982321969892	-6.68850392255249	-114.950339589169	-3.35972753383559	142.967685771796	
1129000000	-3.12467081099185	143.463571606407	-6.69375877060825	-114.984191021419	-6.69181662638878	-115.00306133444	-3.36342868143264	142.911856418613	
1129500000	-3.12800323754859	143.366747208652	-6.69462406452837	-115.018126971021	-6.69414018340671	-115.078972976964	-3.36238636334887	142.86113167711	
1130000000	-3.1411679603642	143.282597046454	-6.70992815659313	-115.014864231968	-6.71526797354703	-115.03703476236	-3.37130113255508	142.79115585905	
1130500000	-3.14964664866818	143.161100118639	-6.71404072710996	-115.215799849694	-6.70645493681116	-115.036474050304	-3.36551567412463	142.670499318652	
1131000000	-3.15386920024357	143.118222088408	-6.71657995897021	-115.22831309843	-6.71743366714955	-115.139117090542	-3.36911107212675	142.676521851329	
1131500000	-3.15603638528431	142.880606276169	-6.72726772022664	-115.17495717263	-6.71185966477701	-115.186608828432	-3.36783121287801	142.607848616409	
1132000000	-3.16183225763993	142.845163091328	-6.71389593672545	-115.273780711887	-6.70329432980015	-115.190706430744	-3.36848948204254	142.499195576155	
1132500000	-3.16739471761133	142.749995377996	-6.70974573577247	-115.245397672696	-6.71128980498139	-115.282720307052	-3.3814968291561	142.46368041851	
1133000000	-3.17329572237782	142.620150419013	-6.71762900508593	-115.295633194491	-6.72698605071877	-115.301596470386	-3.3662448975563	142.478755834297	
1133500000	-3.18224786845717	142.525116774455	-6.70328923047649	-115.26780574864	-6.70078854414643	-115.426188053544	-3.36402041934914	142.338854668769	
1134000000	-3.17955558174943	142.463648621459	-6.73744605255314	-115.337434620963	-6.72858613875309	-115.391724887002	-3.37773252811045	142.250770899592	
1134500000	-3.18479398506832	142.347108692203	-6.72675263888683	-115.46387871517	-6.71322725032909	-115.480787785569	-3.37296953802025	142.191643894902	
1135000000	-3.1869219303639	142.264309414385	-6.73997358747241	-115.381786579125	-6.71796290804809	-115.473915252556	-3.37613879491523	142.082565470652	
1135500000	-3.19287564191675	142.199590199875	-6.73325671719387	-115.399066436556	-6.71517534631797	-115.483974106477	-3.37277238243117	142.082888659152	
1136000000	-3.18915307867759	142.075776155617	-6.73487144507199	-115.502786396605	-6.7301565865031	-115.517505781996	-3.36405261731964	142.068394658077	
1136500000	-3.19659008842778	141.982683633759	-6.73346996012189	-115.435594288538	-6.71979476322124	-115.613118423373	-3.36643425178586	141.988984088254	
1137000000	-3.1920005920778	141.940923377074	-6.7388222550009	-115.496453484457	-6.746262665967	-115.592810427754	-3.37640629255009	141.853358607616	
1137500000	-3.18914249433585	141.810650740793	-6.75002437420275	-115.620748345195	-6.72122860538065	-115.633013486299	-3.3656682563882	141.828967945633	
1138000000	-3.19019107664319	141.755082995934	-6.73768126912561	-115.560369003158	-6.74556170322961	-115.623065312949	-3.35262646729419	141.748567142485	
1138500000	-3.19352276754189	141.734294206268	-6.75789443354685	-115.595960628826	-6.74648558131411	-115.676735087467	-3.36941666463429	141.672027478236	
1139000000	-3.2050243020232	141.491018642637	-6.75446288293549	-115.637214590174	-6.74097378597592	-115.704084677752	-3.35971257241808	141.599299376557	
1139500000	-3.20553830888442	141.488682704661	-6.75891414294999	-115.708194312636	-6.75897609122887	-115.735801895546	-3.35284435976713	141.483774522148	
1140000000	-3.18561654125573	141.469141220632	-6.74824634929236	-115.767837884364	-6.74435516581126	-115.707621925943	-3.35516250755454	141.462531828178	
1140500000	-3.19348748866795	141.334135607872	-6.76062263840033	-115.769277414099	-6.75440643032604	-115.792862106953	-3.35353431699835	141.410747045586	
1141000000	-3.19254374471672	141.299658250643	-6.75878420129885	-115.840754435975	-6.76064631463852	-115.872619082127	-3.34763437326477	141.370091280397	
1141500000	-3.19476757023024	141.203220035234	-6.74936311592509	-115.825846581453	-6.7601640332293	-115.869053112208	-3.34716805640305	141.257688328527	
1142000000	-3.17853056141511	141.073579023101	-6.75783822962244	-115.771296199731	-6.75702827840594	-115.853789912319	-3.35078831960739	141.210436057907	
1142500000	-3.18571831716306	141.029628611356	-6.74773518323015	-115.828126953181	-6.75409635386528	-115.873253986658	-3.34117567081846	141.141228200923	
1143000000	-3.18048997270184	141.001867119077	-6.77678088490517	-115.826237064528	-6.75684558066951	-115.85969404658	-3.33761896826191	141.025302660937	
1143500000	-3.18520056147723	140.871668866403	-6.76107740524563	-115.867976387993	-6.7612556042161	-115.947741519049	-3.33949432312786	141.007818838174	
1144000000	-3.19018435961829	140.929305993828	-6.75813697726204	-115.948523373506	-6.75978948305165	-116.012247314174	-3.32967978207045	140.905303477037	
1144500000	-3.18666514745228	140.780307809692	-6.75016346210211	-115.924152042769	-6.75722303455424	-116.042156906126	-3.32916985731668	140.877910073009	
1145000000	-3.17113295709741	140.751958901373	-6.76590689227696	-115.877606557662	-6.76033851430274	-115.962256850311	-3.32297307960732	140.84331925766	
1145500000	-3.14962317029566	140.732191480948	-6.76981675197677	-115.942625235363	-6.76651838769668	-116.046993389231	-3.3163474365805	140.807924410296	
1146000000	-3.16640702524278	140.687572329979	-6.7705494833565	-115.972281547553	-6.76958767287641	-116.034413730261	-3.31524027403096	140.64273247383	
1146500000	-3.15532105763437	140.607997360704	-6.77149244142803	-116.023961442235	-6.75866355753244	-116.090291556234	-3.30335196896036	140.617470501109	
1147000000	-3.15309708129995	140.58729093072	-6.7580893648165	-116.069350001048	-6.76583014961797	-116.117245719138	-3.30430177996187	140.51703235813	
1147500000	-3.14566330740185	140.523408081873	-6.76668723705789	-116.064383360579	-6.75709716192294	-116.142011842434	-3.28480316085582	140.40855117318	
1148000000	-3.14236550548343	140.451171066385	-6.75963572748698	-116.139715980284	-6.76156921020585	-116.162354179207	-3.29691544578641	140.425673903803	
1148500000	-3.13320993501295	140.357458078666	-6.75271938882635	-116.094079353106	-6.74915045513328	-116.164284447495	-3.28816914137305	140.410267960564	
1149000000	-3.12206190845376	140.400829283701	-6.76967425434696	-116.183679319252	-6.75524275060976	-116.168432901384	-3.27683442911125	140.289567027979	
1149500000	-3.11677268358464	140.365105501915	-6.77025198978064	-116.168795811486	-6.76344380129597	-116.179922880715	-3.27887955308781	140.235806447103	
1150000000	-3.10428943515525	140.338063974257	-6.75353254527885	-116.112465622224	-6.76552940898324	-116.240307312526	-3.27022170819784	140.188188216279	
1150500000	-3.10600794754786	140.376371427626	-6.75096958402973	-116.208479900457	-6.75315527036819	-116.266420735569	-3.27048709077468	140.142463025089	
1151000000	-3.09320926417467	140.210931626064	-6.7680827713801	-116.246912458305	-6.75868092624489	-116.307945599347	-3.253496596051	140.073710158922	
1151500000	-3.08703831432389	140.159842943916	-6.75935857843635	-116.295184186796	-6.75757227726547	-116.280429222763	-3.26117795246375	139.982654662104	
1152000000	-3.07161473689728	140.181760527408	-6.75979462992127	-116.266111376245	-6.76080338974353	-116.297920813201	-3.23926983542011	139.944542451076	
1152500000	-3.07362042230333	140.139227601749	-6.7499094029482	-116.271425799504	-6.75350412969402	-116.259806413623	-3.2398335494957	139.855258227673	
1153000000	-3.07659163719732	140.104535393698	-6.75920415547526	-116.335151984263	-6.75720420396881	-116.289946715623	-3.23493984438305	139.836712643396	
1153500000	-3.05962141691327	140.122161566635	-6.73989421193198	-116.283069565339	-6.75983283206291	-116.263849632623	-3.21601932436534	139.853934360731	
1154000000	-3.04986443744817	140.097378771516	-6.74735892446496	-116.297629426165	-6.75377646814801	-116.440389763724	-3.22692972474604	139.736734589281	
1154500000	-3.03815487654633	140.07407980532	-6.74922976216405	-116.405145867984	-6.75391915859021	-116.422223053194	-3.2223200879157	139.655218254319	
1155000000	-3.02896692952541	140.140453026577	-6.75696172863993	-116.276834154648	-6.75767120511931	-116.45977963878	-3.20700430072546	139.617804915346	
1155500000	-3.02115272747543	140.069421352757	-6.74562542795141	-116.305316039229	-6.75299794683141	-116.385579053702	-3.21515787251134	139.58460831404	
1156000000	-3.00618877018386	140.092675518265	-6.75122962928879	-116.355410267332	-6.74923902361447	-116.5192117112	-3.20956160743265	139.511786131645	
1156500000	-3.00590947579771	140.153216685527	-6.75334187850495	-116.433373482943	-6.75254827167741	-116.549605265932	-3.18501608607103	139.502866999631	
1157000000	-2.98924154020356	140.114206781017	-6.7400378153112	-116.354402646421	-6.75853412896233	-116.539418820173	-3.18932784415708	139.430813540953	
1157500000	-2.98007005916894	140.129982454001	-6.75308728519873	-116.399008558602	-6.74022022450088	-116.468042145522	-3.18772391777489	139.416196714755	
1158000000	-2.9726234396395	140.110246699066	-6.73964040804778	-116.506091351329	-6.7384153639789	-116.50646409778	-3.16976504289779	139.288184253082	
1158500000	-2.95794552136496	140.104842361825	-6.73319715862991	-116.487440036717	-6.72846479645782	-116.511508699097	-3.17859346338991	139.291295577777	
1159000000	-2.95169652204044	140.192810199665	-6.72482528329705	-116.516380139468	-6.72775841306049	-116.523201180512	-3.16118374353923	139.239767775173	
1159500000	-2.95425810685373	140.115041929114	-6.74418939391166	-116.529840663996	-6.72927768188978	-116.551747369514	-3.16352817331535	139.217751969211	
1160000000	-2.93353756824884	140.177523513397	-6.74673221850616	-116.421808001639	-6.72930753653779	-116.547683667499	-3.1504650963491	139.157323215952	
1160500000	-2.9207637957468	140.200263353128	-6.7332755567032	-116.64238669159	-6.72860904164095	-116.561269227316	-3.14367636463165	139.165672384216	
1161000000	-2.92206057477858	140.19700495181	-6.73624681932311	-116.569627312736	-6.72730651286	-116.569877646192	-3.14012049471307	139.094322325162	
1161500000	-2.90612156975178	140.224205579483	-6.73596601888593	-116.637651006506	-6.71860164156816	-116.664342142822	-3.1332448416833	139.089953697949	
1162000000	-2.89249141251818	140.230900262856	-6.72630795731752	-116.622737947918	-6.72289790874488	-116.64407416569	-3.14021955948745	139.078703434198	
1162500000	-2.88036600940324	140.26080095612	-6.70448043689032	-116.612219908092	-6.70228249921171	-116.670206768901	-3.11345459574015	138.959862000994	
1163000000	-2.86880142865613	140.370473863244	-6.71355467887895	-116.641631084838	-6.70119653095947	-116.694337122982	-3.11487653901496	138.934985305524	
1163500000	-2.8742529448831	140.361694231464	-6.70964264261277	-116.609413473775	-6.70859074139201	-116.715674543261	-3.109232925089	138.94466714126	
1164000000	-2.85294230996424	140.333237392855	-6.69945986882264	-116.698919845938	-6.70576901043848	-116.735199644507	-3.10933556542809	138.893497076878	
1164500000	-2.85110785971113	140.395414747854	-6.71475699826917	-116.700828255493	-6.7052687125877	-116.728334845524	-3.10512620198896	138.876951010304	
1165000000	-2.83301333277174	140.410197243157	-6.68651098734886	-116.722023945296	-6.69202011265913	-116.745135896916	-3.08392796151395	138.826237334486	
1165500000	-2.82726786377002	140.455241650778	-6.69162009082226	-116.721914224682	-6.68225450514097	-116.713813684257	-3.08406504507845	138.801454910527	
1166000000	-2.82015568541071	140.506880381688	-6.68871153338464	-116.806279372262	-6.68429013673099	-116.771375114191	-3.08567084807581	138.802934879168	
1166500000	-2.80584118365762	140.587549047071	-6.68693122902325	-116.791581905061	-6.68349384714173	-116.797932848109	-3.08538871480483	138.76047395082	
1167000000	-2.79656385251205	140.552459373684	-6.66453155384358	-116.787645568982	-6.66973421440463	-116.866145101108	-3.0760291907138	138.691963331614	
1167500000	-2.78342719558464	140.630018189859	-6.67765286608969	-116.843772387232	-6.6730990495333	-116.831492690506	-3.06915015607134	138.669207495951	
1168000000	-2.77803194184179	140.681833994761	-6.65731846433724	-116.955833147224	-6.6627902210879	-116.885543644171	-3.07079163790012	138.681964912726	
1168500000	-2.76777994076838	140.700960156945	-6.6736152928748	-116.921727242232	-6.66792421591845	-116.926778390613	-3.06072638939229	138.669140565111	
1169000000	-2.75427710256037	140.753934967461	-6.67080178916787	-116.928299374452	-6.66781727202534	-116.93465515151	-3.06121563272068	138.634465658337	
1169500000	-2.75304825921235	140.825822303797	-6.65709418232295	-116.96901619461	-6.66508361860381	-116.935291413364	-3.05433325226119	138.611689921636	
1170000000	-2.74473572857194	140.854715487719	-6.64567192558542	-116.977428566527	-6.6520658105923	-117.022021408124	-3.05893939739324	138.610002649809	
1170500000	-2.73309476546002	140.931173596353	-6.6481049372419	-117.017411003722	-6.64916692699964	-116.976516587422	-3.05195167095465	138.581533328545	
1171000000	-2.71938130082665	140.94524519128	-6.63960949330084	-117.075126006182	-6.63405721224738	-117.029318704803	-3.04516987304094	138.560046117553	
1171500000	-2.71988395322532	141.000115725946	-6.63305715708483	-117.046939798537	-6.63266001049294	-117.094077858171	-3.04929910434687	138.492712848668	
1172000000	-2.71857586515719	141.040720280804	-6.63387846022954	-117.081883516067	-6.6221452599453	-117.122483639871	-3.0553736968593	138.492052382421	
1172500000	-2.6994514142906	141.137394216608	-6.61812934951005	-117.117547471406	-6.61321703891544	-117.162812431296	-3.04370016781388	138.523473058424	
1173000000	-2.69856913577456	141.176826328025	-6.61374726465648	-117.244716247452	-6.61520908155503	-117.219390406176	-3.04281304592338	138.456752930218	
1173500000	-2.68688653846338	141.282868391442	-6.61008087799059	-117.20594129641	-6.60722701045184	-117.235669587314	-3.04567933118044	138.520970411243	
1174000000	-2.67951102176195	141.327033942476	-6.60556440888492	-117.208940453354	-6.60919509057779	-117.255422185969	-3.03895051094484	138.446348906175	
1174500000	-2.67543085200936	141.392558243565	-6.59859044924554	-117.267763804215	-6.5941141669627	-117.265108859094	-3.039675122852	138.424224577752	
1175000000	-2.66510936419288	141.425472686758	-6.58872260872906	-117.297181134361	-6.59815129084364	-117.302663835234	-3.03275544825121	138.433078233087	
1175500000	-2.66023153768935	141.459647668839	-6.58212453292223	-117.370945149993	-6.59704953512088	-117.348566835729	-3.03307042956758	138.407651020638	
1176000000	-2.65464132796364	141.503831013363	-6.58090900419295	-117.410268170433	-6.58234505943552	-117.30870444229	-3.03160096273608	138.426644412317	
1176500000	-2.65259682514342	141.596088078937	-6.57116262530309	-117.332102809083	-6.58013580489087	-117.400437236601	-3.03522645051571	138.431456874997	
1177000000	-2.63983768214514	141.705828233679	-6.57361178012308	-117.516136537198	-6.5724213416099	-117.482135086051	-3.03694543488369	138.395001588565	
1177500000	-2.63875840063228	141.690271134071	-6.57216688003635	-117.545579630729	-6.564424176681	-117.533007317767	-3.0363009236159	138.321816927374	
1178000000	-2.63929085634809	141.766404607964	-6.55732022629086	-117.594053936348	-6.56070059664499	-117.551625159108	-3.04709872336298	138.378206883097	
1178500000	-2.63232320015508	141.883773576921	-6.54346279291052	-117.615622618371	-6.55225801721429	-117.593137920461	-3.05272363020233	138.383011802308	
1179000000	-2.62118223628982	141.900521997153	-6.54803742797896	-117.588917619978	-6.54590787471857	-117.587332247445	-3.03930717881291	138.338497651709	
1179500000	-2.62658795330268	141.969239093037	-6.53622202420639	-117.682227044228	-6.53866320376372	-117.708800536792	-3.04562418860216	138.355749137368	
1180000000	-2.6087330277734	142.044865600119	-6.52929443192556	-117.691373135398	-6.53012232078759	-117.71644967184	-3.03999225761077	138.314752825744	
1180500000	-2.61417222468155	142.049209044406	-6.51886181521886	-117.739390709707	-6.51660106621093	-117.714283626268	-3.04357501693751	138.326034418224	
1181000000	-2.60174300545685	142.129085119698	-6.51964829750266	-117.776065008232	-6.52753419029811	-117.813581813694	-3.05361112713371	138.319532420183	
1181500000	-2.6030682945955	142.122827673594	-6.50169379886734	-117.86034454786	-6.50315232467005	-117.85490744902	-3.05487477772579	138.313768421591	
1182000000	-2.60690877991648	142.238669413104	-6.51245890111239	-117.850210252761	-6.5003439928354	-117.845940568292	-3.05356342369667	138.312818066455	
1182500000	-2.59582020951806	142.32611094063	-6.49385865818658	-117.945064287603	-6.49544757895643	-117.926911581128	-3.0639336562834	138.303767677611	
1183000000	-2.59460981755586	142.352652167966	-6.4887009430502	-117.972578039393	-6.49276592256628	-117.968772204468	-3.05488849684353	138.295081107649	
1183500000	-2.6062682988656	142.431190654063	-6.49479138428624	-118.09011078592	-6.48546437592682	-118.014756558189	-3.06711254431199	138.293738029128	
1184000000	-2.59564177852526	142.42250965373	-6.47751769873364	-118.091789634102	-6.48191605318482	-117.996818950969	-3.07267809232127	138.242068037284	
1184500000	-2.59578474193822	142.465967134547	-6.47138292188469	-118.115003810815	-6.47459635176966	-118.159266997585	-3.07541273622538	138.258609129243	
1185000000	-2.59448759302126	142.570210298733	-6.46955863097368	-118.240441674164	-6.46973369449395	-118.137636044912	-3.07844288205525	138.244658828235	
1185500000	-2.59807665585016	142.624398835733	-6.46446283044154	-118.274363478383	-6.45297253717408	-118.278160411008	-3.07921653170657	138.207563922712	
1186000000	-2.60640688906046	142.661875186787	-6.44549395141674	-118.303915221917	-6.45279684520036	-118.282541130727	-3.08769084807289	138.233685366619	
1186500000	-2.59696860166002	142.700978092716	-6.44808893769638	-118.374208537012	-6.44200739555169	-118.354541473569	-3.09572341763375	138.24632072346	
1187000000	-2.59828836816538	142.715660520167	-6.4277590385234	-118.391982832822	-6.44076357563987	-118.381066978437	-3.10252074131795	138.218197458943	
1187500000	-2.59742997974316	142.79671716612	-6.43454746234555	-118.505695493008	-6.43819103882061	-118.487129042022	-3.1041730135306	138.188492409448	
1188000000	-2.59801319680975	142.831618359963	-6.41660590338722	-118.508009600857	-6.42470122124549	-118.51202322348	-3.10912766297201	138.223646905437	
1188500000	-2.59667925101379	142.86803915703	-6.41154461532506	-118.618072152541	-6.42154293719926	-118.516766620775	-3.12063002736645	138.224842463263	
1189000000	-2.60820551622823	142.939309472474	-6.41962213676548	-118.653723438077	-6.41881294603693	-118.565385721117	-3.12046820660571	138.187807042171	
1189500000	-2.60515247577245	142.997242031887	-6.40086521796468	-118.659806799651	-6.40916213739322	-118.604379136017	-3.12942770890134	138.20220167085	
1190000000	-2.61473613786348	143.019589941919	-6.39278531748756	-118.743217026711	-6.39757564441293	-118.724857196706	-3.13328788695787	138.225266913952	
1190500000	-2.62172293611445	143.026927604343	-6.39421468401549	-118.807775710964	-6.40325009210856	-118.79906535406	-3.15759940704355	138.206876486744	
1191000000	-2.62789774419586	143.036997908847	-6.3827569927314	-118.901095129753	-6.3901105081621	-118.895397074063	-3.15360414127716	138.133764333037	
1191500000	-2.63003745579481	143.101604034664	-6.38200100017349	-118.953492682998	-6.38283223578459	-118.901900923161	-3.16293141267853	138.162632079301	
1192000000	-2.63390779110813	143.106441171919	-6.37470216250493	-119.006823221264	-6.36981389162195	-118.958959617491	-3.1694114910078	138.162858158427	
1192500000	-2.63861405583391	143.110729774807	-6.37192679568727	-119.099681569	-6.37031330148014	-119.073720504345	-3.17986654398758	138.166298165802	
1193000000	-2.64406964128056	143.192067150867	-6.37040226644838	-119.103219357064	-6.36919029573902	-119.058003110038	-3.18767968609947	138.130897910307	
1193500000	-2.64534254316394	143.205729575452	-6.34321937420154	-119.198549185807	-6.35506551408327	-119.165774595671	-3.20350501702529	138.097593414976	
1194000000	-2.65120408546023	143.186613271271	-6.34826050168714	-119.227267139045	-6.35158657224955	-119.274927697692	-3.2114214772301	138.075499719698	
1194500000	-2.66191775630479	143.207526599891	-6.35000835863343	-119.366361918457	-6.34567897809374	-119.290338301573	-3.21090509895852	138.072012788882	
1195000000	-2.66944736959727	143.213510646274	-6.33705705408631	-119.406622686577	-6.34037147034924	-119.304917132313	-3.22036732076252	138.09519814993	
1195500000	-2.66920872749757	143.225774808963	-6.33228074051734	-119.440445185227	-6.34166022230458	-119.362349739719	-3.22636019727201	138.04931742692	
1196000000	-2.68364412392294	143.204447315316	-6.32366075898372	-119.492640596642	-6.32311683782977	-119.387184835474	-3.24063383452587	138.097780875562	
1196500000	-2.69679389161603	143.256061157233	-6.32186941581884	-119.592470610276	-6.33240141435222	-119.481443390811	-3.24878405215541	138.064926872032	
1197000000	-2.69036999222804	143.273609302486	-6.31494496202339	-119.671808076524	-6.31729473909721	-119.664123945423	-3.26374058503186	138.035234991517	
1197500000	-2.70363474905587	143.26340690087	-6.30800871167963	-119.729227575848	-6.30832462527595	-119.633380861573	-3.27034560256753	138.043994220318	
1198000000	-2.71781230285768	143.252679818779	-6.30575713241173	-119.781713930009	-6.30755740285845	-119.748409109385	-3.28008389228208	138.047300801716	
1198500000	-2.72192684129037	143.204988071885	-6.30130705363371	-119.893449192305	-6.3026400960667	-119.791907357442	-3.29362495771656	138.010894909869	
1199000000	-2.72948898231851	143.211424531773	-6.29663993473516	-119.916615242046	-6.29849653797394	-119.866734766735	-3.30260477283526	138.011417314027	
1199500000	-2.74639344189897	143.198175596711	-6.2925898847249	-120.046585650151	-6.28890051044327	-119.960628159917	-3.31574525024474	137.961860136095	
1200000000	-2.76156325191657	143.15734161549	-6.27738616605919	-120.097707107574	-6.28005600503456	-119.998868700448	-3.32182666829408	137.90888641868	
1200500000	-2.75531239633644	143.15260549806	-6.27684855653584	-120.183397571158	-6.2818756181434	-120.061876998114	-3.33453455636104	137.927743312219	
1201000000	-2.77947122903385	143.1211197159	-6.27858424066007	-120.268105274939	-6.28465659378848	-120.155732477273	-3.34856223740949	137.889156109006	
1201500000	-2.78848271941181	143.100716991897	-6.26491742366781	-120.259645886426	-6.27346696901518	-120.201276928103	-3.35395941472282	137.845877927077	
1202000000	-2.80617722837765	143.102901229868	-6.26735719116028	-120.415140150115	-6.25660371515228	-120.36055573271	-3.36343907758198	137.848170836952	
1202500000	-2.81401785684859	143.064177727962	-6.25532897446451	-120.431874877741	-6.24772168533182	-120.400783614363	-3.3673217849636	137.851804911004	
1203000000	-2.82252761745089	143.035731510277	-6.25648854191403	-120.58675603265	-6.26301117242864	-120.425238349833	-3.38725231691297	137.793298247122	
1203500000	-2.83590063278206	143.030512811377	-6.25193949266875	-120.645752574032	-6.25502557186237	-120.518860683778	-3.39773391809731	137.762416366564	
1204000000	-2.84821006867542	142.971736242213	-6.24978678005658	-120.685805948085	-6.25555053765694	-120.618716694522	-3.40863306301316	137.769097922891	
1204500000	-2.85757102040667	142.893162850134	-6.24313068487144	-120.737498750854	-6.24695759611074	-120.594850238993	-3.41499009005449	137.762520498626	
1205000000	-2.87625523202067	142.888443909521	-6.2375347951406	-120.814653612908	-6.24604699229047	-120.747449967893	-3.42519816676601	137.72195598799	
1205500000	-2.88542047653767	142.850929778326	-6.2333258871252	-120.958219324517	-6.24266885370878	-120.767420566648	-3.44338102126423	137.677994884728	
1206000000	-2.90010218617207	142.809962253563	-6.22814099772959	-120.993861415228	-6.22818181142772	-120.844288159952	-3.46639025260478	137.645048358734	
1206500000	-2.92101800378239	142.74855339874	-6.22857513860598	-121.112582384975	-6.236814213668	-120.979717357234	-3.46423128568913	137.626936178426	
1207000000	-2.93052051232541	142.601912205188	-6.22613071505224	-121.205272986013	-6.21752547736576	-120.991711833881	-3.48184545262807	137.612286383316	
1207500000	-2.95176550466037	142.652215960824	-6.23289579405258	-121.180609236266	-6.22201779911684	-121.054910419005	-3.48853623967746	137.592627746556	
1208000000	-2.95521909080434	142.532777416842	-6.2334958076535	-121.33207981736	-6.22835096532289	-121.146138086425	-3.50020638377553	137.539285635773	
1208500000	-2.97410580866361	142.422919334803	-6.20855219224412	-121.338494577432	-6.21729573711799	-121.214016584668	-3.51396175585996	137.484697045021	
1209000000	-2.99007918318161	142.447156016034	-6.22574618781712	-121.416372781251	-6.2045165255003	-121.343762425894	-3.51691376119762	137.505520838177	
1209500000	-2.9920178267722	142.256496149455	-6.2114191244002	-121.496770469037	-6.2106045265762	-121.363259408887	-3.52684723191818	137.411544325278	
1210000000	-3.01816181823509	142.240827259582	-6.21822742002474	-121.584157744562	-6.21336482627093	-121.442090270972	-3.54113857383871	137.408266466621	
1210500000	-3.03026726538124	142.143756316913	-6.21219889062107	-121.607580539836	-6.20673479685173	-121.556132706833	-3.55110869225023	137.370999822509	
1211000000	-3.04306550888329	142.042870172763	-6.20195436409338	-121.67358333738	-6.19781791290496	-121.674049804962	-3.55773386010568	137.305517425021	
1211500000	-3.04553418659745	142.012765684799	-6.20729138175758	-121.781232447009	-6.19875822397995	-121.676561170995	-3.56658184791028	137.336494683208	
1212000000	-3.07842812559948	141.962366295949	-6.20260889057827	-121.913251575506	-6.19416004291778	-121.805845084785	-3.58389686939164	137.210647583511	
1212500000	-3.08532165378912	141.792330900148	-6.19333794223386	-121.989799467054	-6.19081479936938	-121.891077815285	-3.58975577612164	137.142487038702	
1213000000	-3.10070416633952	141.680659495123	-6.18889827476501	-121.989335675786	-6.19074474355861	-121.896514242249	-3.60087674329475	137.204174353694	
1213500000	-3.11891395317726	141.590393228711	-6.1838547488803	-122.091887839663	-6.18081119913094	-122.072578310167	-3.6126297040055	137.091021273891	
1214000000	-3.12941233221976	141.463025074904	-6.18754703521555	-122.217841914468	-6.18657197385515	-122.106027825421	-3.62055498713261	137.053907919673	
1214500000	-3.14662790647291	141.400253786142	-6.19162942159823	-122.284045405361	-6.18167791003015	-122.202015465797	-3.62809036847104	137.017473356679	
1215000000	-3.16701023307387	141.268973293067	-6.1923757257957	-122.358278844454	-6.17887688831685	-122.175839895916	-3.62826985531165	136.962024183888	
1215500000	-3.18653682352438	141.208325310637	-6.18154465915015	-122.367128986954	-6.18020830185429	-122.336184128984	-3.64666194396005	136.993950807552	
1216000000	-3.19093900551624	141.047908658619	-6.19817515517181	-122.44353392634	-6.17824828980204	-122.328575943234	-3.65124670362026	136.919076887341	
1216500000	-3.2119375532382	140.94709410984	-6.18383198590471	-122.53052835615	-6.1797034924545	-122.419852622112	-3.65838828040532	136.839173845342	
1217000000	-3.2167797395673	140.837979788133	-6.18018650625135	-122.617150611685	-6.16691777682901	-122.447509052934	-3.67432698402114	136.728953025048	
1217500000	-3.2369206517076	140.710114115015	-6.18633902470293	-122.65618078772	-6.18042520546437	-122.594975646654	-3.68471380415842	136.707348320478	
1218000000	-3.24924425766418	140.609336690292	-6.18100669882952	-122.746246067159	-6.1839775972936	-122.739447884109	-3.68446904699562	136.647705953478	
1218500000	-3.26332066882915	140.386855340177	-6.17330729797945	-122.810196996271	-6.17349550576037	-122.683626295255	-3.68146772918815	136.659134278408	
1219000000	-3.27772362451026	140.310743183647	-6.17906874448673	-122.847177122746	-6.17302589200676	-122.787657116525	-3.70023485861903	136.562333888113	
1219500000	-3.29948324125711	140.203715933993	-6.18111390864051	-122.943147070559	-6.17302469895258	-122.833204571886	-3.71353993513105	136.5249286869	
1220000000	-3.30285574330124	140.055844275177	-6.17808099464722	-122.941011323791	-6.17774305296574	-122.937074436626	-3.72100049548351	136.465750610017	
1220500000	-3.31901827911927	139.890110030818	-6.18089177949901	-123.1041857834	-6.17134840737071	-123.013451889203	-3.72564692621429	136.436742896462	
1221000000	-3.33167133651041	139.773757632222	-6.17550249183219	-123.112449034533	-6.17040402711113	-123.035133066418	-3.72276502954768	136.363536595483	
1221500000	-3.34985932244813	139.64315913139	-6.17191059947644	-123.216096753883	-6.18020992336599	-123.198682958238	-3.7354719259682	136.297790023625	
1222000000	-3.3570657379091	139.486264446118	-6.18468072472386	-123.334749130137	-6.17308828410307	-123.249413226722	-3.74196722576361	136.240808624039	
1222500000	-3.37559051093041	139.36401024135	-6.17951123858012	-123.36697142988	-6.17428605065333	-123.199262169214	-3.74551251727013	136.149048483327	
1223000000	-3.38400541324166	139.255108520667	-6.1743751547609	-123.475580628667	-6.18106340725013	-123.280492005531	-3.74592074235916	136.140966387534	
1223500000	-3.41197394012051	139.01919702293	-6.17345771682788	-123.467411256638	-6.16207654529892	-123.36970368659	-3.7527012524019	136.07548323721	
1224000000	-3.42259218068725	138.930525866206	-6.17788361671972	-123.592519270596	-6.17147722323716	-123.450833822193	-3.76265175492586	135.991921616037	
1224500000	-3.42067741142247	138.793214826389	-6.18148085345708	-123.605285642557	-6.17213615281222	-123.557065790984	-3.76477694993039	135.934299285136	
1225000000	-3.43807612739808	138.648894742724	-6.1828059402839	-123.59903544117	-6.1694369739819	-123.574722203142	-3.77034949224072	135.844848298036	
1225500000	-3.45186295674392	138.540698090586	-6.19332871263109	-123.781169454587	-6.16458619086725	-123.663215729632	-3.76833940973511	135.832384127597	
1226000000	-3.45279467066029	138.31101244106	-6.18594481128301	-123.861714324343	-6.18419982708367	-123.655531667629	-3.76715445535581	135.732318219208	
1226500000	-3.46579489784074	138.200695924093	-6.18388498296387	-123.904657999418	-6.17936498102397	-123.959344216586	-3.76847207048141	135.705207353545	
1227000000	-3.47704956373629	138.002343464423	-6.1839236917659	-124.046167469453	-6.17938496908059	-123.889077791148	-3.78213623962866	135.624628444773	
1227500000	-3.48902191391991	137.849930558698	-6.18482175913153	-124.033026434242	-6.18118525159312	-123.918710964716	-3.78436603427462	135.545309348454	
1228000000	-3.4901159144869	137.68900500676	-6.18075958448355	-124.081615473909	-6.1639559072184	-123.938827208875	-3.77806556081149	135.442212513472	
1228500000	-3.50805666554808	137.515566099174	-6.17569508241415	-124.213127994474	-6.18453118892925	-124.030059723961	-3.79490162877651	135.440174338832	
1229000000	-3.50979658307204	137.401580338625	-6.18758435847177	-124.190153759343	-6.19338376407817	-124.151090486052	-3.78589449096164	135.41863237653	
1229500000	-3.53443669027379	137.154554713031	-6.18025978580658	-124.28300529881	-6.18038696486053	-124.114638659084	-3.79004335317181	135.335339363497	
1230000000	-3.53809496850872	137.024595388441	-6.18059013809812	-124.389755417205	-6.18574651822141	-124.27052507195	-3.78852079402827	135.220932372708	
1230500000	-3.53104813022931	136.917699308827	-6.19328197955752	-124.408849596418	-6.17859799291725	-124.328865819811	-3.79494865134708	135.110281920185	
1231000000	-3.55001837939364	136.735258559799	-6.19419385190537	-124.409438220023	-6.18017240656036	-124.31563217176	-3.79500386415692	135.129721296675	
1231500000	-3.55030980610882	136.633846557157	-6.18222938713658	-124.531555384527	-6.18071306156395	-124.505736351121	-3.78962088209878	135.065971436447	
1232000000	-3.56934557026676	136.406930973923	-6.19106938987501	-124.490490517716	-6.1831092786947	-124.410438567736	-3.78776314517832	134.955348203057	
1232500000	-3.56638505288894	136.263035746751	-6.18801636519423	-124.550225681581	-6.19029455410805	-124.538402486497	-3.79028877774275	134.825655656321	
1233000000	-3.56506599454402	136.139766372791	-6.20101369539544	-124.711600733875	-6.18846276004034	-124.706312811898	-3.78149890289053	134.847901125835	
1233500000	-3.56670238087546	135.991653767471	-6.19638949228224	-124.791344361245	-6.19780035266163	-124.712709971057	-3.78988152399169	134.814065411168	
1234000000	-3.58213441011	135.79664949247	-6.19537275603155	-124.792180301383	-6.1875799329644	-124.694515707664	-3.78982295676779	134.72128894126	
1234500000	-3.58188600392644	135.678615122408	-6.19494547379286	-124.784637239485	-6.19795196775705	-124.693299585227	-3.78001738222668	134.564016892874	
1235000000	-3.59170177436447	135.481733482281	-6.20447997662979	-124.887327624335	-6.19704793151928	-124.856171627634	-3.77896277759434	134.600308051405	
1235500000	-3.59584900298473	135.429281446782	-6.19996758244815	-124.886609679046	-6.20537209159349	-124.895100863433	-3.780639021745	134.477487577174	
1236000000	-3.60156079825509	135.201513805635	-6.21724060008543	-124.916533619133	-6.20825714832269	-124.861587569068	-3.77537803983605	134.455315127588	
1236500000	-3.58299080327325	135.066232026618	-6.20820276272717	-125.039238489132	-6.195155224021	-125.050324642934	-3.76754115378212	134.383399877022	
1237000000	-3.60791887350229	134.951920634347	-6.21209863779726	-125.059529644267	-6.20077536995542	-124.992409701567	-3.76578796439506	134.298964855559	
1237500000	-3.59411221172944	134.772796772789	-6.21114067387136	-125.111030856705	-6.20830136607752	-125.071749392182	-3.77128399471626	134.2426947138	
1238000000	-3.59961570185024	134.635266629987	-6.20510146747711	-125.121679842261	-6.19182194557212	-125.169168056784	-3.76529089856201	134.123610569877	
1238500000	-3.60412058027221	134.545600523865	-6.20271919382071	-125.187111688644	-6.19405552478129	-125.256394997624	-3.76906969745959	134.071636787414	
1239000000	-3.59629032553974	134.366311945663	-6.21470722021741	-125.330869763825	-6.20780984754526	-125.25363645442	-3.74969882083863	134.015204800856	
1239500000	-3.60635408661544	134.265168837313	-6.21988220520103	-125.397076578495	-6.21215855111644	-125.35591004974	-3.7404954757023	133.935890326881	
1240000000	-3.60575012633801	134.054514031893	-6.2297891136144	-125.373597692	-6.21208927889327	-125.403310176766	-3.74403084334457	133.881303501134	
1240500000	-3.58743850916002	134.032780890749	-6.22429745986743	-125.386008723985	-6.22205887145192	-125.402215711793	-3.74414974035964	133.87540410698	
1241000000	-3.59410235382146	133.848544530936	-6.22351291411305	-125.475950442298	-6.21222836913949	-125.455692092384	-3.73724744933408	133.806947985048	
1241500000	-3.58467643846836	133.700120657415	-6.21558829647076	-125.451787922128	-6.21241483006431	-125.461680873909	-3.73100826174374	133.684861979344	
1242000000	-3.58732760208573	133.601602656401	-6.21394054245848	-125.475857670678	-6.22034987210759	-125.478026630843	-3.71591365357052	133.665074985627	
1242500000	-3.57523856979827	133.510215814873	-6.22144655373619	-125.559955375683	-6.20941728579307	-125.489995341124	-3.71936726154394	133.465842067115	
1243000000	-3.57799135931187	133.363581995017	-6.22564713585495	-125.660764309421	-6.21643304177309	-125.630150426404	-3.7032490066734	133.529167440779	
1243500000	-3.58786519762337	133.298234796565	-6.22819830808788	-125.691267769443	-6.20669660469707	-125.744347962744	-3.70505044989668	133.459616962775	
1244000000	-3.56624615531542	133.165844031302	-6.23156285702342	-125.724662293411	-6.2166891071948	-125.724603359397	-3.7046662093374	133.398284210362	
1244500000	-3.56579025750117	133.082570656558	-6.22419938109456	-125.726839849574	-6.22746407455507	-125.743302965964	-3.68723766186321	133.269377663621	
1245000000	-3.56689522076547	133.020237843389	-6.23243092449255	-125.776668363877	-6.22018197684639	-125.802948445175	-3.67877483335304	133.318837919253	
1245500000	-3.5474799228904	132.862167279235	-6.2305689049628	-125.856941206902	-6.22362199735184	-125.776891375677	-3.68374986144518	133.185771759774	
1246000000	-3.54945375837206	132.827826403142	-6.22254120901544	-125.891179704593	-6.21748024344356	-125.898417968999	-3.66948255675846	133.131411487477	
1246500000	-3.54642356336713	132.733855153212	-6.22996705936214	-125.910341578955	-6.2428380000613	-125.903749680967	-3.66330814909989	133.08991291879	
1247000000	-3.53307122175995	132.588222042777	-6.24554894523281	-125.939641163839	-6.21532219710229	-126.006063879842	-3.66319181638275	133.007781882909	
1247500000	-3.52123820072346	132.530307962796	-6.2271567153859	-125.936363365036	-6.23369440769675	-125.964254533457	-3.64389920992447	132.936874559735	
1248000000	-3.52527414847372	132.520398217484	-6.23030244117392	-125.88629220645	-6.22506909235891	-126.001106160276	-3.63668999982192	132.867154491288	
1248500000	-3.51371199614983	132.375209298603	-6.23579200075511	-126.01593353179	-6.22804079448187	-126.057247844034	-3.64632268638214	132.841919094994	
1249000000	-3.49907541415179	132.319640016895	-6.23422452254673	-126.033906808485	-6.2355608145722	-126.056843950275	-3.63211133220234	132.799337842067	
1249500000	-3.49141357909581	132.208417643759	-6.22914292598573	-126.089962928158	-6.23981960965355	-126.134160372329	-3.61741098927787	132.753665024317	
1250000000	-3.48490081598026	132.158924294064	-6.21750127358288	-126.075724506756	-6.23146239440069	-126.123262847557	-3.62486030411432	132.690410666143	
1250500000	-3.48044013812152	132.051366777195	-6.24270319917601	-126.132026559944	-6.23988186031447	-126.21167408588	-3.61232316818062	132.647058251932	
1251000000	-3.4837269714241	132.094789233031	-6.23107340238084	-126.251299957949	-6.23559283641911	-126.178256891232	-3.59191124683768	132.654950998515	
1251500000	-3.45185200316448	132.052361969775	-6.23862723113265	-126.217824866451	-6.24109922652533	-126.203813830883	-3.57894954737484	132.551782134479	
1252000000	-3.45166089734602	131.952860697829	-6.23099073539529	-126.266498204819	-6.22776497681446	-126.268972551489	-3.58646008388752	132.508403715348	
1252500000	-3.45184777658779	131.921945365496	-6.23033632361728	-126.328573905483	-6.22940854875275	-126.330797801927	-3.56862360056617	132.48374413018	
1253000000	-3.43895049547845	131.841695791257	-6.24275989187545	-126.292521565817	-6.24563474128606	-126.261972920326	-3.56165116962823	132.410607447712	
1253500000	-3.41618581604039	131.88050341213	-6.23527756081983	-126.38801708779	-6.23769098527913	-126.341624529752	-3.56776810446656	132.397059093003	
1254000000	-3.40252423288098	131.791265516145	-6.2307334782316	-126.383956971657	-6.22953299100562	-126.320457970541	-3.53170957981669	132.29054050327	
1254500000	-3.40563519312072	131.745773639546	-6.22440137121338	-126.318407361246	-6.22662733208728	-126.470024695626	-3.53286918315678	132.278909890684	
1255000000	-3.38587057590116	131.782708910484	-6.23477996426328	-126.441459261171	-6.23688985028558	-126.473859685917	-3.54205938559802	132.264939674652	
1255500000	-3.36536330533426	131.734207420229	-6.23806812606994	-126.469376777869	-6.23283650511032	-126.48405291802	-3.53476917378554	132.203271564365	
1256000000	-3.35884977326115	131.73925039217	-6.23022729319076	-126.470301653302	-6.23321478303184	-126.49889029819	-3.5264477191012	132.205062798463	
1256500000	-3.35254389387253	131.648411724403	-6.22540021748327	-126.518788846669	-6.22487784061107	-126.561916861452	-3.51066302609068	132.21607019371	
1257000000	-3.33885920149746	131.674122258187	-6.21473976819543	-126.501751506794	-6.23899251445245	-126.50204430615	-3.50732370171711	132.107734008728	
1257500000	-3.33166052515213	131.661266076251	-6.23661234521199	-126.510893357023	-6.23376605917542	-126.555857203291	-3.50311912445554	132.072681351626	
1258000000	-3.32069496802523	131.650201988282	-6.2374768195881	-126.627874428726	-6.23836299906141	-126.578683020514	-3.49499278507358	132.08756824442	
1258500000	-3.30873091903729	131.678796174108	-6.23141317993707	-126.626514819457	-6.2298980339383	-126.677305503416	-3.48214303540751	132.075399474423	
1259000000	-3.28701497003958	131.652941650255	-6.23592152777836	-126.68098969658	-6.2195373527064	-126.661026446959	-3.47705147629583	131.995194898009	
1259500000	-3.28388994595582	131.730698445583	-6.22551411042813	-126.638662272123	-6.2297126970516	-126.688771943878	-3.48815882514323	131.973312033396	
1260000000	-3.27609802268723	131.739569890122	-6.23166474474003	-126.691011232125	-6.23386288484291	-126.58931299105	-3.46802057647333	131.953247305334	
1260500000	-3.26662938854608	131.762667249618	-6.22632878334466	-126.741436246409	-6.23498569401132	-126.692719607603	-3.45907252487071	131.890901093042	
1261000000	-3.2516631204667	131.74306449024	-6.22454990014802	-126.644671582943	-6.2302273367088	-126.699327367541	-3.44526471429138	131.843828036615	
1261500000	-3.23505236708528	131.776706313598	-6.23479083593864	-126.76842692759	-6.23196011944383	-126.694528411839	-3.4506686010153	131.86204436393	
1262000000	-3.23385488720661	131.813454980861	-6.23175028997811	-126.782946802904	-6.22600904112045	-126.831156530921	-3.44133889022194	131.823378920603	
1262500000	-3.22144266237524	131.839531346924	-6.22290936905004	-126.810424131854	-6.22067477884349	-126.816042145894	-3.42658024494433	131.769139142608	
1263000000	-3.20491499446404	131.868548899617	-6.2182107950341	-126.810687315796	-6.21179985214621	-126.840830401027	-3.42640686729364	131.754213771832	
1263500000	-3.19800868626904	131.935238528211	-6.21970676182088	-126.865266311437	-6.22103170352625	-126.834981320962	-3.42556219191235	131.771796020014	
1264000000	-3.18200913271612	131.955679698073	-6.21916554976466	-126.872441687878	-6.21050649854923	-126.852330237251	-3.41597584685555	131.702470042373	
1264500000	-3.17857679070612	131.99744453322	-6.21614864586152	-126.881628985789	-6.20111091933988	-126.859898879924	-3.4131838182939	131.684425051265	
1265000000	-3.16137082143691	132.022028846615	-6.20844063034007	-126.953537285834	-6.22229783414494	-126.905483601149	-3.41516151359441	131.741071828386	
1265500000	-3.14678555468805	132.097739706067	-6.19682840641806	-126.91601505436	-6.20956527417779	-126.861150954598	-3.41151521278579	131.650111882248	
1266000000	-3.13069125411293	132.131675024662	-6.20465708209848	-126.974372501195	-6.21093576884404	-126.950038818062	-3.39971496280335	131.594887616281	
1266500000	-3.12949104910136	132.264094721004	-6.20572496929861	-126.987296617156	-6.20572568413358	-126.997936949176	-3.39473119091652	131.648437806519	
1267000000	-3.11950605964406	132.254421495993	-6.21422690783079	-126.949741630454	-6.21877388758629	-127.019181380991	-3.39678477882056	131.624909575566	
1267500000	-3.11554848940384	132.35982574999	-6.19612534750465	-126.99822511578	-6.21578245641483	-126.992533358981	-3.39324966668989	131.605091351216	
1268000000	-3.10150283092367	132.368638246195	-6.20669922891422	-127.060954213843	-6.20960357210587	-126.973033811849	-3.39115109603606	131.554135831774	
1268500000	-3.07669939025747	132.500594756341	-6.19236210364523	-127.106944006102	-6.20583341297311	-127.092734913166	-3.3887872623459	131.538503362866	
1269000000	-3.07575134680582	132.574892828666	-6.19553787192888	-127.06181756112	-6.18607648307295	-127.095066075832	-3.3891741828745	131.53887829901	
1269500000	-3.06440930234118	132.614926683196	-6.19377698174357	-127.127515540256	-6.18700929839801	-127.085419753218	-3.3904486023101	131.516935933624	
1270000000	-3.04983587730447	132.707228363036	-6.18532381512055	-127.171510471438	-6.19553852622823	-127.190805868841	-3.37950015785006	131.51850939449	
1270500000	-3.04663527459193	132.777499435475	-6.17636165460463	-127.187648704689	-6.18792181435865	-127.124323158198	-3.38470495234107	131.492413559913	
1271000000	-3.04348791099298	132.850274207412	-6.18158358092658	-127.199430414188	-6.18084025906502	-127.170989024776	-3.37235023612377	131.501070574265	
1271500000	-3.03061840026233	132.957960884261	-6.17550970904801	-127.174114378205	-6.18370932688605	-127.224318240799	-3.3719280696159	131.455708546639	
1272000000	-3.02438033349502	133.004176892527	-6.18783837682264	-127.295161547706	-6.17666812332918	-127.245567868804	-3.36955102387058	131.476693932488	
1272500000	-3.00767616803723	133.102770043026	-6.16592767438425	-127.245357533132	-6.16936174208611	-127.287894312012	-3.37624821705896	131.497125615492	
1273000000	-2.99694758363869	133.151542344704	-6.16533378181524	-127.289084191858	-6.16927838350613	-127.2972473237	-3.37139543060232	131.419477296698	
1273500000	-2.99023703241773	133.293619179289	-6.17266367193144	-127.286819043056	-6.15899023156788	-127.308402732512	-3.36869001477356	131.387705932784	
1274000000	-2.98655866400843	133.393264590317	-6.16613594278773	-127.289592933352	-6.1571899550499	-127.367751692213	-3.37045562694382	131.386339570717	
1274500000	-2.98004094456696	133.454675134771	-6.16756797332792	-127.390495053242	-6.17189463084243	-127.393366101736	-3.38570829655871	131.415440878577	
1275000000	-2.9770796917474	133.544227725295	-6.15395215484829	-127.345941380763	-6.15271150289303	-127.424316149063	-3.37884547489688	131.400001480803	
1275500000	-2.9617258935408	133.649516532184	-6.1534461371861	-127.447859522831	-6.1493073330217	-127.431498294961	-3.37416666082354	131.406098594926	
1276000000	-2.95410908828609	133.731667680832	-6.14208976283738	-127.448587330554	-6.14254840262909	-127.517113298228	-3.38596297788547	131.364328986939	
1276500000	-2.95060617896433	133.796980304489	-6.13149579816271	-127.465118444249	-6.13638763463328	-127.412972959574	-3.39029738084153	131.360729322503	
1277000000	-2.94022225653269	133.930204780918	-6.14254333199813	-127.432594619113	-6.1340239462152	-127.484070309344	-3.37984611815779	131.303278584221	
1277500000	-2.94648894620313	134.044742273009	-6.12481568825967	-127.568250180902	-6.1460437416586	-127.550285907593	-3.39128134828382	131.395578249238	
1278000000	-2.93730378485641	134.082082119592	-6.12624818760368	-127.644499277357	-6.1210446440847	-127.601272422846	-3.39160173861499	131.313292657658	
1278500000	-2.92179603274556	134.208850553239	-6.11332501775761	-127.59929017449	-6.1148251109543	-127.57782798507	-3.39405661932454	131.268002967996	
1279000000	-2.93363026169121	134.26348095985	-6.11219393493888	-127.709654250935	-6.11340826339754	-127.60788387767	-3.40517169438149	131.252438790934	
1279500000	-2.91633029811307	134.417761883544	-6.11424144283843	-127.676520543688	-6.10945399973967	-127.644104912646	-3.39978732257826	131.291622042119	
1280000000	-2.91657884546075	134.502888239614	-6.10048857281512	-127.716305506648	-6.1050000965224	-127.766166470394	-3.4114090845825	131.235358143279	
1280500000	-2.91041049743256	134.643599781475	-6.09622346811769	-127.728155665722	-6.09981481966555	-127.740372790382	-3.41572559186563	131.285175041472	
1281000000	-2.91206316128314	134.726140998512	-6.08890739889389	-127.780501948491	-6.08885399121319	-127.754433775494	-3.42591249185209	131.261655291509	
1281500000	-2.91126424528858	134.85342751744	-6.09412218430415	-127.830153229946	-6.09611519785203	-127.805013891625	-3.43103309036757	131.25805215135	
1282000000	-2.90746953989288	134.891161976851	-6.08766947417722	-127.873385114631	-6.08770053207567	-127.852375046628	-3.43265621641274	131.249645230272	
1282500000	-2.91129321136557	134.964994287432	-6.06893072322311	-127.911122758278	-6.07330433720548	-127.893244478161	-3.43984955078677	131.130734073942	
1283000000	-2.9044640418691	135.146995807147	-6.07159714485985	-127.957094726215	-6.07604552097878	-127.860019996829	-3.45627152919997	131.225766757656	
1283500000	-2.89431558776157	135.149491640772	-6.07131964944782	-127.993076491959	-6.0674592758986	-127.899153240926	-3.45468872829208	131.176881870135	
1284000000	-2.8995711466339	135.268433144221	-6.05570357175437	-127.953363522456	-6.06334048858878	-127.952720980076	-3.45403801403508	131.159961579358	
1284500000	-2.89711359651974	135.395064554772	-6.06589163662341	-128.04921575913	-6.05466216791746	-128.052230600352	-3.46615934156576	131.101265848625	
1285000000	-2.8922784760651	135.516092665676	-6.05256305560036	-127.998396361379	-6.03668851560302	-128.055080689639	-3.46399852478282	131.112343351909	
1285500000	-2.89392464470152	135.570115855813	-6.04679970727309	-128.117979713125	-6.0422325088558	-128.09016104451	-3.48872807401398	131.095154911965	
1286000000	-2.89975151753197	135.671944858526	-6.04272465305497	-128.165148676838	-6.03183596974981	-128.066288085786	-3.48470320555897	131.119298870462	
1286500000	-2.89545545310724	135.774474353258	-6.02522971024499	-128.172580213917	-6.02610017883692	-128.175507384688	-3.50852603478376	131.059649330477	
1287000000	-2.8958860101307	135.871972353218	-6.024354480122	-128.170819086377	-6.01676118849045	-128.189351403109	-3.50160347380717	131.102340172368	
1287500000	-2.89100197209607	135.885914692375	-6.00790166307333	-128.311254766808	-6.01774688965406	-128.220319930533	-3.51370033415965	131.080773209224	
1288000000	-2.90834810723797	136.078849536404	-6.03043123878177	-128.336375637785	-6.02192441886808	-128.320556775083	-3.52921095514771	131.105771899477	
1288500000	-2.89633368164626	136.108018691054	-6.01156848200487	-128.311510601511	-6.01084260446707	-128.333044868615	-3.53821473719435	131.066012331214	
1289000000	-2.90388121567848	136.248777593855	-6.00240485493975	-128.406397811847	-5.99992859403541	-128.379938943679	-3.54390019281578	131.091360239046	
1289500000	-2.89770673645594	136.327094682941	-6.00326006502185	-128.409451369396	-5.9968733365313	-128.398233004844	-3.55744859629918	131.055188289913	
1290000000	-2.91454435944398	136.437133254303	-5.98790171439564	-128.425319069574	-6.00398791922493	-128.434132980552	-3.56629762614219	130.995288705054	
1290500000	-2.912164300584	136.452262508778	-5.97869954108332	-128.505675205711	-5.98936628888434	-128.527841996524	-3.580164857982	130.934284228934	
1291000000	-2.92463580739876	136.563100262554	-5.98611276397411	-128.458519601287	-5.98227130903485	-128.485238598229	-3.58673676356189	130.895977695874	
1291500000	-2.91831429241892	136.629014588481	-5.96208803206124	-128.634397346114	-5.968547754846	-128.623491781067	-3.6006116800152	130.935307692245	
1292000000	-2.92701951717765	136.717536263363	-5.95892014920131	-128.673213317966	-5.96837614565069	-128.597298187045	-3.60911630268929	130.944898940477	
1292500000	-2.93610464082008	136.765787878656	-5.96529463881398	-128.605017820296	-5.96871400112296	-128.621906002366	-3.61755280693621	130.87525130458	
1293000000	-2.93712048842731	136.806614873799	-5.95918880054085	-128.671512199734	-5.96216631633928	-128.660167554973	-3.64088102503407	130.888859585954	
1293500000	-2.94574170859745	136.884672756859	-5.93465320393364	-128.811882485329	-5.94397810424709	-128.769675825212	-3.6528863455841	130.881680328322	
1294000000	-2.95407083177127	136.970192518008	-5.93969425028106	-128.809153795519	-5.93883942005083	-128.740887527269	-3.66104664542953	130.833617841891	
1294500000	-2.96305446741096	137.005145467468	-5.93017226516929	-128.908972247456	-5.9305381607208	-128.90549813049	-3.68224997217604	130.773837515121	
1295000000	-2.96332710108353	137.113811999335	-5.93697161017613	-128.913421970531	-5.93685717075636	-128.90783831791	-3.68774641990449	130.678867255917	
1295500000	-2.98861721338057	137.120524424141	-5.91671306008305	-128.985885539209	-5.91856425710299	-128.989862785661	-3.69700713096574	130.742568828758	
1296000000	-2.97618544379152	137.249161243757	-5.91391138197099	-128.949745610458	-5.90515621538067	-128.963426672254	-3.70490859001366	130.737493417934	
1296500000	-2.99221927569664	137.219498562392	-5.91149881469102	-129.133856423498	-5.91694516981004	-129.120632451653	-3.7314079517572	130.674885163002	
1297000000	-2.99583885336145	137.330323811248	-5.91143287551878	-129.210740778703	-5.9052357678595	-129.086855197739	-3.73911353478456	130.624452417318	
1297500000	-3.01107178621944	137.395657587613	-5.89630265931024	-129.164641282322	-5.90175415271291	-129.170042918475	-3.74717657034183	130.626946806074	
1298000000	-3.02812478408448	137.367975766422	-5.88844279832648	-129.332458826098	-5.88428929810123	-129.234144979719	-3.7704817264364	130.608407608262	
1298500000	-3.03735678271167	137.453967372673	-5.88232876932294	-129.305929272718	-5.88268204881544	-129.267857019039	-3.76793151969001	130.583650560037	
1299000000	-3.03786216068979	137.425054372975	-5.86840887511133	-129.451571706663	-5.87197785427986	-129.322992540241	-3.7962399366696	130.538270619911	
1299500000	-3.04315626539725	137.556684784146	-5.86655767473134	-129.419446097881	-5.87341150668172	-129.418553750388	-3.80555055705799	130.543296506426	
1300000000	-3.06490004122102	137.503877902838	-5.85991693768587	-129.57897310422	-5.8766411540059	-129.493668487607	-3.82898036422512	130.472300565991	
1300500000	-3.06729277542353	137.585930988144	-5.86213721893382	-129.506924171267	-5.84910386688129	-129.500900327899	-3.83568104210897	130.371213902091	
1301000000	-3.09136459515643	137.524622560139	-5.84461595348062	-129.581878508929	-5.85258552925511	-129.531069206936	-3.84595872134996	130.344120354487	
1301500000	-3.0907133727394	137.622091609053	-5.84176506036435	-129.630134192539	-5.83886967561777	-129.57488475095	-3.84890071653251	130.299167302671	
1302000000	-3.10869302183069	137.569237611318	-5.83621459381123	-129.683150408774	-5.83220334327512	-129.664091345874	-3.88227862472249	130.345310458592	
1302500000	-3.12162391021393	137.530749706578	-5.83980933536662	-129.695722411095	-5.82862533211643	-129.701438955892	-3.89340934296494	130.32504572078	
1303000000	-3.13997831771748	137.532989241824	-5.82044934147279	-129.784567551485	-5.81393415986838	-129.824110056463	-3.90264987928353	130.205234708815	
1303500000	-3.15015513022135	137.566622039212	-5.81370125463311	-129.846132056745	-5.82254002379897	-129.845150655177	-3.91677450516199	130.220492714863	
1304000000	-3.1572283861597	137.662347611872	-5.8079398946614	-129.907437530395	-5.80429879035147	-129.935128780082	-3.92012270924645	130.155373766887	
1304500000	-3.17300815688313	137.486194259599	-5.80347001404885	-130.040062001073	-5.79630485952784	-129.972118888008	-3.9488192416001	130.08916928152	
1305000000	-3.1929914986287	137.60906475036	-5.7957108165435	-130.086232008623	-5.78214170496877	-130.115927026208	-3.9609658878333	130.140654350928	
1305500000	-3.20235407085154	137.516077819721	-5.80196968375548	-130.112311984109	-5.7705608151797	-130.137168897061	-3.97187850817296	130.00101259704	
1306000000	-3.21658257695252	137.612215443453	-5.80513282043283	-130.262780972019	-5.79613654376523	-130.246531796363	-4.00204378991315	129.986054252697	
1306500000	-3.22870901866825	137.566541642306	-5.7825752968444	-130.27504937536	-5.76304869217036	-130.278298276291	-4.01220817127152	129.890985863926	
1307000000	-3.25469983773409	137.535785456282	-5.78299109451004	-130.322974229856	-5.76911284530901	-130.23252540397	-4.01871632577954	129.854082848444	
1307500000	-3.26196398527208	137.453151191145	-5.76851025545888	-130.359758531822	-5.76027737428073	-130.40317931747	-4.03305304623982	129.796406002382	
1308000000	-3.28339057753179	137.524188357482	-5.75323471565453	-130.462739106911	-5.7616886498031	-130.422358498755	-4.05095462916991	129.848617770829	
1308500000	-3.29422833037954	137.394074343116	-5.76464766494444	-130.542990106711	-5.762704653513	-130.446785759856	-4.06469996946446	129.722877583829	
1309000000	-3.33049101030608	137.402902453511	-5.7394309177217	-130.57647784076	-5.74831352684267	-130.59178863532	-4.07252327365023	129.58185438811	
1309500000	-3.3171623979259	137.273781693194	-5.74052084138358	-130.642715171617	-5.73792455580344	-130.735500807784	-4.07703189015682	129.558322744014	
1310000000	-3.34544014726452	137.302524533741	-5.73898393084889	-130.757286962087	-5.72834202758278	-130.749993655289	-4.10376697549848	129.598657218552	
1310500000	-3.35940222307364	137.207710205402	-5.72128099155826	-130.753755979454	-5.72962281516585	-130.817228367629	-4.11644761931577	129.539545984586	
1311000000	-3.38833922646899	137.112662176109	-5.72111050564964	-130.838775523834	-5.71357116989406	-130.866021939759	-4.12262217471662	129.41344563568	
1311500000	-3.39559830025813	137.035331841277	-5.7385712395854	-131.013052527206	-5.71823229137439	-130.886390135897	-4.14522169675245	129.41360171734	
1312000000	-3.4275435914904	136.972626455118	-5.71826838847964	-130.982814332865	-5.7027783575095	-131.008847959482	-4.15771944550691	129.332611642952	
1312500000	-3.44060172215636	136.952408700015	-5.71452608324687	-131.060253570314	-5.70244198875148	-131.067417094502	-4.16616268846804	129.296596758379	
1313000000	-3.45071813288642	136.849690302994	-5.70775698488593	-131.19583526868	-5.70709393002904	-131.079769095266	-4.181541123757	129.255564835361	
1313500000	-3.47802514594549	136.797106372562	-5.70014283328332	-131.226952184249	-5.6967664065009	-131.230106530064	-4.18727698052119	129.107075910896	
1314000000	-3.48958234435063	136.710113387609	-5.68458897244564	-131.217881648805	-5.68639295640422	-131.322907114467	-4.19557204868219	129.036413876699	
1314500000	-3.51408955381243	136.632034065593	-5.66986147978684	-131.464260811197	-5.69482059624607	-131.379739786563	-4.21528704972087	128.992966190137	
1315000000	-3.53191320087729	136.527110767246	-5.67691687590421	-131.493793963651	-5.69583219974434	-131.497420036654	-4.21435168700956	128.968230768999	
1315500000	-3.54327334999191	136.430159739763	-5.67779482805604	-131.493684359026	-5.68382009792074	-131.397526683463	-4.22994649177906	128.930773594394	
1316000000	-3.56016590219621	136.333979773544	-5.67274401214293	-131.607542220871	-5.66660933021981	-131.62803432916	-4.25358058368702	128.807986391135	
1316500000	-3.58935035144619	136.260989735983	-5.65595317162139	-131.685939492912	-5.65902650952017	-131.643410616145	-4.25501227217818	128.790661482364	
1317000000	-3.60506661979679	136.06923484438	-5.66136707198747	-131.73397877134	-5.65505297124524	-131.831891688813	-4.26901495044426	128.738267437186	
1317500000	-3.62717942815203	136.041076795504	-5.66458970712	-131.88255471933	-5.65151056844527	-131.872430518478	-4.27533243807461	128.641328099238	
1318000000	-3.63130733144462	135.806373579967	-5.65673611898295	-131.955840417752	-5.64246678104694	-131.883199935776	-4.28468924113356	128.592893439709	
1318500000	-3.64516131513454	135.692188693003	-5.63481480027725	-131.972152119244	-5.65618309784655	-131.963236078487	-4.29191512686596	128.496042092217	
1319000000	-3.67554563249594	135.596131199839	-5.64774656364314	-132.018485036999	-5.63811600396351	-132.015294190707	-4.28798071317614	128.482855294969	
1319500000	-3.68600365916824	135.445101231747	-5.66057789866652	-132.160496823777	-5.63493429011995	-132.089233010783	-4.31523698570243	128.404989871968	
1320000000	-3.70501889433834	135.318945890906	-5.62953645447419	-132.2086511588	-5.64113801911534	-132.246217295607	-4.30854076593151	128.324463512778	
1320500000	-3.73852843819172	135.208585766144	-5.63771344189774	-132.313888078786	-5.62910761103994	-132.290687891514	-4.32421429446819	128.209382503401	
1321000000	-3.74730927099654	134.992894717034	-5.63698507973537	-132.304503737439	-5.6193557352263	-132.430030796985	-4.33402762444044	128.180154947387	
1321500000	-3.76354707587888	134.902605373182	-5.62504155205626	-132.371348600768	-5.61521626620321	-132.46939227706	-4.3467899475869	128.128517777138	
1322000000	-3.77187416810684	134.727140858978	-5.61377700002516	-132.526486586845	-5.60822709471189	-132.576182828457	-4.34891855402736	128.127681671941	
1322500000	-3.81491291920101	134.593202094003	-5.62795615523067	-132.626482203498	-5.6102922118213	-132.585359077635	-4.34395257835547	128.071514967143	
1323000000	-3.8141096605112	134.383968082992	-5.63589400159936	-132.701457220938	-5.61634184619647	-132.732619481272	-4.35653505330231	127.967241826559	
1323500000	-3.82672964539533	134.21499164597	-5.61645511960613	-132.756203706195	-5.62188907772406	-132.838385566959	-4.35706261116798	127.876592840422	
1324000000	-3.84600157608896	134.097862250997	-5.62545246906766	-132.895259067196	-5.60939583353306	-132.871000493179	-4.36378512907373	127.89588502802	
1324500000	-3.86967838376656	133.902133113918	-5.60492386610945	-132.941182246913	-5.61859704813782	-133.043558041231	-4.36869472722088	127.752200032028	
1325000000	-3.89388203190386	133.749103799145	-5.61466251166069	-133.089286413482	-5.60104293002117	-133.062474407226	-4.3717352798865	127.691378572137	
1325500000	-3.88785891815673	133.532661008878	-5.60145806307141	-133.146371987651	-5.59844744081129	-133.08943219728	-4.37921921878223	127.604387486001	
1326000000	-3.91300548056842	133.292465492634	-5.59375488586764	-133.22313021528	-5.59669853638603	-133.245673613037	-4.39182148061716	127.563067772877	
1326500000	-3.93182867881439	133.197095169702	-5.58501529054344	-133.30164529823	-5.5990426439965	-133.303881985723	-4.38593475483828	127.507009557567	
1327000000	-3.95233438587247	132.91718723328	-5.5807169460991	-133.390510946779	-5.58196822257535	-133.36123943138	-4.39983397650314	127.425415918752	
1327500000	-3.96455346907595	132.779909011319	-5.58336298998626	-133.490599794336	-5.58067230005164	-133.517153855147	-4.39913861551355	127.35766020866	
1328000000	-3.97803729574072	132.673189374112	-5.57899061981301	-133.600020204032	-5.57741524844332	-133.50978983626	-4.39622153454029	127.265765112255	
1328500000	-3.98568113676141	132.298855992236	-5.5885738366559	-133.671568540034	-5.59190185235273	-133.624079008015	-4.39156378500384	127.238328869202	
1329000000	-4.00890757887975	132.204628916278	-5.59479166060374	-133.795707571366	-5.58628363316929	-133.659949326755	-4.3981885327038	127.163843809126	
1329500000	-4.01737554630464	131.927764866958	-5.57543559154675	-133.784350085785	-5.59189606414737	-133.778632695978	-4.39726597658515	127.142213044853	
1330000000	-4.03428262708984	131.791734559783	-5.58099967303121	-133.869268227403	-5.57966139540881	-133.963555899074	-4.39753122662853	126.98288874204	
1330500000	-4.04041974261802	131.668150659556	-5.58466088265393	-133.938923462511	-5.57261174017845	-133.991930957404	-4.40307344839123	126.908120993639	
1331000000	-4.05456110075499	131.386494056201	-5.57990650308812	-134.072166677779	-5.57476667162193	-134.014578388088	-4.40305038281955	126.812431251239	
1331500000	-4.06526003852553	131.23311281585	-5.5831073838174	-134.157664863633	-5.57639060476746	-134.150596070153	-4.40988684402459	126.813856638028	
1332000000	-4.07157531457042	130.969506340515	-5.57632544829059	-134.210136432589	-5.57386260919645	-134.183901056831	-4.39541507202587	126.778251548017	
1332500000	-4.08868641179896	130.771738659214	-5.58437922209523	-134.314237573775	-5.57742196054162	-134.312079556295	-4.40272312667607	126.789730979768	
1333000000	-4.09944748797576	130.543363779094	-5.57300992879812	-134.366057565255	-5.58769234164112	-134.40409289084	-4.40431394220592	126.679115984088	
1333500000	-4.10409940628242	130.417549643666	-5.57212362425455	-134.460585417566	-5.57385956092871	-134.448242349408	-4.40611164992588	126.573483035833	
1334000000	-4.11721322985955	130.203017014904	-5.57850122469176	-134.55346555657	-5.5657862900555	-134.531456881888	-4.39475231658117	126.465413170858	
1334500000	-4.1169853525816	129.945117167218	-5.56544226499889	-134.559405253795	-5.56304952477549	-134.566757387581	-4.40255377837958	126.390614378355	
1335000000	-4.13214714662899	129.764587926157	-5.57734378457293	-134.623041024814	-5.58001848160008	-134.646052516944	-4.39901754634595	126.344231427779	
1335500000	-4.13001741861593	129.545894584184	-5.57452455736835	-134.712506537213	-5.56334410869824	-134.705949684468	-4.377576022104	126.317474298282	
1336000000	-4.15149091453426	129.34423104508	-5.5670760120486	-134.811170053204	-5.57255316983254	-134.801402163454	-4.38993144933126	126.175941535357	
1336500000	-4.14769905283764	129.164516175171	-5.56965872792051	-134.989979769441	-5.56984279995898	-134.898509195302	-4.38634869371243	126.221814731724	
1337000000	-4.15124658226456	128.913229986772	-5.57324138838565	-134.921710138904	-5.57046524222343	-134.965192225937	-4.37336124473114	126.124243822893	
1337500000	-4.17130526957358	128.767275946403	-5.58410561046524	-135.108626931323	-5.5579085462156	-135.045281528175	-4.37981715240188	126.091728109169	
1338000000	-4.17504615512429	128.504924695481	-5.57696272082273	-135.152790967208	-5.56480951934295	-135.124326120453	-4.37147820533137	126.007374158408	
1338500000	-4.17479032850242	128.317850990601	-5.57169701617771	-135.266939154813	-5.55808970116032	-135.187827291713	-4.36017246580614	125.888148366161	
1339000000	-4.17741325388341	128.058211610962	-5.56670414487794	-135.266557476108	-5.55827613199422	-135.284625008397	-4.37366034455183	125.837267811341	
1339500000	-4.17727487688397	128.038723452619	-5.58086686129804	-135.375046179466	-5.57350717945836	-135.463892818184	-4.35839046530285	125.929245653131	
1340000000	-4.193582405131	127.72978372871	-5.57864237770025	-135.488451183504	-5.56240301907938	-135.459197689722	-4.34596184352176	125.784588255469	
1340500000	-4.18179210234908	127.518987455605	-5.58009087772419	-135.542900027921	-5.57347586503311	-135.498068880393	-4.34779727950918	125.767435408535	
1341000000	-4.18115613108694	127.357470709781	-5.57507386624116	-135.593081353789	-5.56523583613397	-135.619725821205	-4.33359186881342	125.730995489335	
1341500000	-4.18485059298294	127.184815220327	-5.56363092780485	-135.657955119164	-5.55090187094644	-135.614947686934	-4.33094404466592	125.615313049269	
1342000000	-4.19315395772148	126.997813293262	-5.57752081970502	-135.804412503615	-5.56811911032667	-135.637544710229	-4.32080558367441	125.569985769665	
1342500000	-4.19579594748796	126.690473489613	-5.57185557094486	-135.85755148938	-5.58214229930378	-135.804587550736	-4.33162936793802	125.563926480825	
1343000000	-4.19417905266097	126.633581686082	-5.56479168867487	-135.893176961692	-5.56581907518773	-135.864828791091	-4.3149581176574	125.495930420821	
1343500000	-4.19758731547977	126.440955013296	-5.56940084918062	-135.906196253794	-5.57548955666113	-135.900347338392	-4.30339228524164	125.441582601456	
1344000000	-4.17554792391046	126.201968572561	-5.57195998048131	-135.986808684529	-5.56837797889297	-135.973517854604	-4.29800075463969	125.383330927042	
1344500000	-4.1630909771915	126.138334373789	-5.5728372066911	-136.109415908355	-5.57262002334244	-136.090355691888	-4.30152698057345	125.399665749416	
1345000000	-4.19612829370378	125.847146836039	-5.58616961348462	-136.156450230708	-5.57423759073357	-136.055222680168	-4.28174289577002	125.357220052955	
1345500000	-4.18143087464976	125.740440214041	-5.56717510654719	-136.223510136538	-5.57919923610996	-136.176897004215	-4.26798599114485	125.302924024083	
1346000000	-4.1696437845627	125.555216743292	-5.57430042981049	-136.268637489085	-5.58154058108985	-136.257409621022	-4.27646510831057	125.262790525888	
1346500000	-4.18051551747782	125.441265051295	-5.57918463154659	-136.313506292533	-5.56926054597308	-136.304698951529	-4.25481302928514	125.168645209888	
1347000000	-4.16854717761524	125.226302166019	-5.56596180337804	-136.432128932761	-5.58660029034468	-136.366004315204	-4.25874603286162	125.136745357094	
1347500000	-4.15935426868941	125.169083892228	-5.5640698948177	-136.550441391189	-5.58311641745493	-136.435635430295	-4.2435865878683	125.126594549471	
1348000000	-4.16754567366439	124.93218399429	-5.57706972798517	-136.512177275562	-5.5922407976998	-136.454415590343	-4.23889498224367	125.078362187137	
1348500000	-4.14951215046419	124.72342791515	-5.59088766575445	-136.574421141532	-5.57576622666359	-136.482777795776	-4.2346347240077	124.981105509316	
1349000000	-4.1415551641565	124.6910391599	-5.58607455000692	-136.628626621232	-5.57427722715917	-136.630832706992	-4.22341366994526	125.022860923119	
1349500000	-4.13674394785065	124.54302513414	-5.59849019546275	-136.634187198684	-5.58201920264107	-136.630343006561	-4.2131035335041	124.959868084944	
1350000000	-4.13259115678468	124.417518908416	-5.59806481685078	-136.847731817721	-5.58223406714754	-136.762266761534	-4.19427399232987	124.951521912523	
1350500000	-4.12956578386229	124.326307238638	-5.58652969266811	-136.748128787392	-5.58316936487367	-136.743157548751	-4.19522036204852	124.838188123942	
1351000000	-4.11511277828512	124.197260344275	-5.59415733791732	-136.816822272544	-5.58269934863737	-136.807375072662	-4.1825183025073	124.92044978096	
1351500000	-4.10757101880139	124.05120332623	-5.59168483107054	-136.885867209868	-5.576732499522	-136.917975866341	-4.17088603247717	124.829300626258	
1352000000	-4.09835086603465	123.971301579351	-5.58568410585125	-136.965235234634	-5.59673474241239	-136.953080990761	-4.16632241832532	124.844477686868	
1352500000	-4.08546586062422	123.803570081457	-5.58143612080914	-137.057380602563	-5.5872494802579	-137.043481127432	-4.16080455625382	124.71986340899	
1353000000	-4.07846693525278	123.79615331962	-5.58267579279691	-137.08983493006	-5.60514175538292	-137.058302100564	-4.15906225985017	124.660291718668	
1353500000	-4.07282434297008	123.708282320046	-5.59517303800807	-137.085478834084	-5.60363688147953	-137.117318608692	-4.15085568870549	124.683313357099	
1354000000	-4.05996240353261	123.613795291522	-5.59120714784392	-137.134968819828	-5.59753603503786	-137.156428521545	-4.14054792692786	124.66991339043	
1354500000	-4.04839405428533	123.529062193023	-5.5918996974138	-137.307624898375	-5.60186719809489	-137.144758918038	-4.13520684771333	124.66379143668	
1355000000	-4.0374380865534	123.410901586099	-5.58958459584932	-137.305754825337	-5.59340425622707	-137.269570635849	-4.1196199510636	124.666159970022	
1355500000	-4.02845190900594	123.362506579823	-5.59909839091039	-137.352464933197	-5.61776948755362	-137.262048709316	-4.11681522557733	124.591768918056	
1356000000	-4.01278220112626	123.23548018132	-5.5927792712583	-137.361089256781	-5.60210739240671	-137.366095264212	-4.1099716221308	124.571569359537	
1356500000	-3.9954311366987	123.142819874749	-5.6189880546169	-137.438689238506	-5.60335314818969	-137.412421063621	-4.10280644376653	124.518045483343	
1357000000	-3.9909305407103	123.105560867729	-5.60733379015893	-137.414547147766	-5.61160833963311	-137.415118043922	-4.08348230500757	124.516571522527	
1357500000	-3.99085631568525	123.146193571317	-5.60832590265791	-137.451029457156	-5.61276547038393	-137.527448396134	-4.0879581368571	124.516174707561	
1358000000	-3.97979691332807	123.018060714164	-5.59880202033042	-137.503498302733	-5.60694435916601	-137.517969802354	-4.08240652483721	124.497942131348	
1358500000	-3.97539695398309	123.073101620328	-5.60523082807112	-137.554405082466	-5.59809811998531	-137.523734894818	-4.06880745235399	124.425831599091	
1359000000	-3.95075369160597	122.966910597894	-5.60319247362326	-137.624956360114	-5.61657448707257	-137.567092593486	-4.06314871815142	124.422099351091	
1359500000	-3.93441931937713	122.942946123794	-5.6070525439738	-137.601798632339	-5.61760833108882	-137.593411006145	-4.0483550086511	124.452719963049	
1360000000	-3.9226172441208	122.940713811514	-5.60139096793787	-137.715193966214	-5.59694756377195	-137.693809492548	-4.04148167050268	124.393377171025	
1360500000	-3.90424538951378	122.97269240898	-5.61556118142744	-137.753503314325	-5.60617356587584	-137.757038031204	-4.0394431630099	124.44817872961	
1361000000	-3.90269710091317	122.939547895165	-5.61958033879393	-137.762009468146	-5.61399741371767	-137.747185268901	-4.04295877135536	124.355545814808	
1361500000	-3.89370151358641	122.925144429295	-5.62094042984957	-137.811355491656	-5.62656409183034	-137.760136803864	-4.02909759997433	124.3844732563	
1362000000	-3.87464038486013	122.959678613444	-5.62293425190467	-137.84630525268	-5.61175758383004	-137.878117149177	-4.02959220610501	124.326056534348	
1362500000	-3.85468967078841	122.915307411472	-5.61642684476297	-137.862481784645	-5.60094375231871	-137.874044457926	-4.01107537462524	124.272135074573	
1363000000	-3.85253372620397	122.88229343772	-5.62307460369563	-137.90282847172	-5.6300881308126	-137.876960115991	-4.00735535708016	124.289806722621	
1363500000	-3.84742738493172	122.855489428576	-5.61241283337177	-137.982219911244	-5.630214475625	-137.878621445045	-4.00769456899083	124.287604275638	
1364000000	-3.83604815385992	122.955343096457	-5.62052692336463	-137.980511333548	-5.62849068429364	-137.886244167316	-3.99705408691107	124.306187906997	
1364500000	-3.82860109952961	122.903986231727	-5.61811222125008	-137.976928289787	-5.63053162665024	-138.030380503363	-4.01438321349541	124.217954591928	
1365000000	-3.79957567099693	122.937701985973	-5.62701005594286	-138.042050176814	-5.60865093261269	-137.999114828518	-3.98223867485042	124.229566617875	
1365500000	-3.79784540752999	122.961535562192	-5.61975309289815	-138.01626304791	-5.61342549885566	-138.04193423145	-3.98737977718144	124.211358629031	
1366000000	-3.78236595773981	123.064262984519	-5.61729103827071	-138.139010293377	-5.62062339513678	-138.057917549721	-3.99292096112557	124.203451233472	
1366500000	-3.76992996287656	123.037332974026	-5.62472441722173	-138.075481085919	-5.62264474911162	-138.164662809363	-3.98640411708018	124.171168281503	
1367000000	-3.76114081731609	123.097387301736	-5.62805049300548	-138.171236347924	-5.61960513518547	-138.136749401311	-3.98065298999257	124.149845149556	
1367500000	-3.73954709640084	123.174526884623	-5.62481506142817	-138.171091097554	-5.62459586475617	-138.094040441233	-3.98104108959473	124.196645155147	
1368000000	-3.73085682832114	123.268013924037	-5.62469727613375	-138.200186777299	-5.62483357826279	-138.235340779784	-3.97268763573596	124.107541743564	
1368500000	-3.71518658172238	123.304806310138	-5.61589466872534	-138.194269874661	-5.6164574724506	-138.24622863363	-3.97417609078507	124.096289045706	
1369000000	-3.70605058358031	123.338882992446	-5.6235759843785	-138.247748440868	-5.62528659099659	-138.290372510676	-3.97476546087395	124.120810927611	
1369500000	-3.70273350058682	123.434636130539	-5.62693714870587	-138.337830990791	-5.61862865461992	-138.273577217341	-3.98243906947393	124.066819387155	
1370000000	-3.69322488919213	123.442609753375	-5.62649457720788	-138.346388965755	-5.62175052374789	-138.338611337737	-3.9821499922376	124.084299508282	
1370500000	-3.67156795143691	123.511108564611	-5.62358520641751	-138.365430457157	-5.63471098457184	-138.423327234624	-3.9753040244151	124.084793726336	
1371000000	-3.66168460016698	123.590316009257	-5.63542362824614	-138.365218941655	-5.61872534528614	-138.39233862042	-3.96537933228898	124.071116537093	
1371500000	-3.65333533232751	123.571294820896	-5.61357609689663	-138.396927922944	-5.61507372219234	-138.392209320351	-3.97130819722125	123.983831707619	
1372000000	-3.64202159017915	123.732346249488	-5.62421405835999	-138.438718565496	-5.63316518132122	-138.47460351314	-3.98090119282284	124.03769311455	
1372500000	-3.63342892623734	123.843411268767	-5.60537787130643	-138.480729302546	-5.60674847246728	-138.451998149553	-3.96370653562262	123.908147282724	
1373000000	-3.61567521504782	123.909370477068	-5.61846298657823	-138.467811374565	-5.61663002248684	-138.430942626905	-3.97477498723692	123.95095960453	
1373500000	-3.61296119590689	123.991192963749	-5.61856351408924	-138.557168727861	-5.61706269234555	-138.507606910663	-3.98199243124255	123.914395294428	
1374000000	-3.59806423916844	124.165842432984	-5.62004669177573	-138.563859800909	-5.62521978655161	-138.54999269519	-3.97786256931767	123.930250992942	
1374500000	-3.59119647643406	124.167996934298	-5.60837157030754	-138.509249771507	-5.61050335261719	-138.593420934827	-3.9802791801805	123.85740052049	
1375000000	-3.57099171449689	124.291659269102	-5.61589350111326	-138.580144551125	-5.618278296881	-138.588341648865	-3.97796777399775	123.959259198312	
1375500000	-3.57785646021477	124.322317339575	-5.60515730613178	-138.624704641457	-5.60174544014244	-138.56478310894	-4.0047875940648	123.847535848776	
1376000000	-3.56493224602891	124.428537834976	-5.60196267874118	-138.653002624549	-5.60181069872253	-138.629053072385	-3.99327131617374	123.81697900549	
1376500000	-3.55595757331432	124.501292493955	-5.6040200980248	-138.643010442695	-5.60471959272995	-138.6646133003	-3.98642274433305	123.798646305685	
1377000000	-3.53833319703133	124.666812820237	-5.60479950563844	-138.644509244723	-5.60302348012861	-138.684167844462	-4.00629941343118	123.825028313119	
1377500000	-3.53371800190363	124.772390824053	-5.61417874493538	-138.679732231479	-5.59691433336272	-138.654151136723	-4.00478340390289	123.759995909023	
1378000000	-3.52734772304282	124.965360403618	-5.60836112645593	-138.719307224303	-5.61078745534838	-138.693508442783	-4.00132472833213	123.828598951568	
1378500000	-3.51137864050188	125.047836886695	-5.60177187505597	-138.729646816049	-5.60686163485787	-138.758691897547	-4.02246996191672	123.746940156308	
1379000000	-3.50400329903011	125.100371645439	-5.59193943338907	-138.750251347096	-5.59907171613417	-138.713773036559	-4.02278879138621	123.730307084917	
1379500000	-3.49765639563889	125.291092843933	-5.60345112641455	-138.77049473854	-5.59529022006305	-138.748894415863	-4.02950364584736	123.712198149656	
1380000000	-3.48396377582795	125.343313534989	-5.60026412376148	-138.774248833516	-5.58787505883919	-138.75644425964	-4.03624496093246	123.660036427236	
1380500000	-3.48618171675827	125.494155350714	-5.58915614768194	-138.871073500955	-5.58036249202431	-138.818012620083	-4.04307105936232	123.637317828937	
1381000000	-3.46761165704896	125.596778449771	-5.58703109538641	-138.83644789134	-5.59596067143303	-138.819556921033	-4.06267902407505	123.694005534633	
1381500000	-3.47294320868256	125.736822319461	-5.57899997685802	-138.872331079911	-5.58729998013874	-138.888135210785	-4.06290204235552	123.594061646787	
1382000000	-3.46431012833542	125.835155194055	-5.58522488299218	-138.890046648755	-5.58817887437583	-138.907479967778	-4.07933065721402	123.583989697624	
1382500000	-3.46690180487459	125.963934849542	-5.5765537497067	-138.891776576518	-5.5753703189665	-138.922471651817	-4.06719458823962	123.569537123011	
1383000000	-3.45750878272397	126.115830953051	-5.56836980713418	-138.972549558738	-5.57149582167101	-138.902164258502	-4.07554761174974	123.51824883939	
1383500000	-3.45592567144318	126.253036873827	-5.57642447110625	-138.923181006702	-5.57142563507103	-138.920842560537	-4.08044148490284	123.504107255157	
1384000000	-3.44499998776559	126.369119439405	-5.57184770943191	-138.940731698593	-5.56766143550646	-138.935294643735	-4.09866602216716	123.440206159466	
1384500000	-3.44058899106325	126.419096816872	-5.55915603067612	-138.97482987313	-5.56661986591388	-138.957730314967	-4.10597990392964	123.358774471217	
1385000000	-3.44191889649327	126.577500559354	-5.55812606045548	-139.034019589348	-5.56132454260236	-138.990585860669	-4.11691605342715	123.373881172431	
1385500000	-3.43936611657846	126.801275062476	-5.55752978305047	-139.028114623319	-5.55442554367376	-138.963444458794	-4.12881558853352	123.431333588466	
1386000000	-3.43427016484552	126.798371560375	-5.54911689280355	-139.10566815423	-5.55499560105299	-139.038400397605	-4.14100935887844	123.378524469044	
1386500000	-3.43969037248451	126.989314639533	-5.54438345855742	-139.081328671501	-5.53433204115349	-139.04988256712	-4.14268706181917	123.305271953799	
1387000000	-3.43258530587798	127.096599019558	-5.54934508261186	-139.115956125794	-5.55207042866029	-139.08268159504	-4.16251019331654	123.356041443684	
1387500000	-3.42249594082143	127.255857274207	-5.53850983887658	-139.119811019888	-5.53736879713704	-139.102498716118	-4.17174909449969	123.280841486201	
1388000000	-3.43224454809215	127.37308632904	-5.54123370141979	-139.195523144074	-5.53609599338091	-139.164416478214	-4.17866335966463	123.252757998132	
1388500000	-3.41965558790995	127.534354343436	-5.52801080326489	-139.13594122861	-5.54229580548806	-139.144571796512	-4.21230806402752	123.171237001715	
1389000000	-3.43630055077679	127.632437187608	-5.51211698050498	-139.292953465258	-5.52042535880145	-139.243211894	-4.20280740868713	123.182198488522	
1389500000	-3.42036122041556	127.776626873699	-5.52068907029511	-139.221721110877	-5.51417400037801	-139.206051629824	-4.21889117656052	123.063955745134	
1390000000	-3.41102256080981	127.808461474379	-5.52854858108432	-139.28613505412	-5.51549024328869	-139.209556384579	-4.23776513351012	123.083930693216	
1390500000	-3.40994585359663	128.025629345731	-5.51171997592253	-139.198295716064	-5.50618196042526	-139.293732935177	-4.24777642210292	123.042445388016	
1391000000	-3.41432679100164	128.172031912468	-5.50660884596961	-139.333289588686	-5.51430452655292	-139.331713328104	-4.26715699575651	122.958622231949	
1391500000	-3.42452312665911	128.226290957122	-5.48692403192617	-139.331271740748	-5.49301735010293	-139.313594900797	-4.28714671014521	122.921301529113	
1392000000	-3.43554358579557	128.445647142578	-5.49550683143317	-139.430912398785	-5.49737009801733	-139.413321070957	-4.29218510228069	122.898104064816	
1392500000	-3.42441479304716	128.397363831471	-5.50469162143531	-139.439343365959	-5.49307000031948	-139.408852071286	-4.31936169550686	122.875564603693	
1393000000	-3.41821287394191	128.59881926932	-5.48173974949003	-139.451012915658	-5.48451478439051	-139.413061881184	-4.33631426837705	122.761432393237	
1393500000	-3.41043441985527	128.635356601788	-5.48313363409231	-139.441992259657	-5.46717085585742	-139.357763753315	-4.34761801495504	122.695793794374	
1394000000	-3.4331020312178	128.790520263064	-5.47736799596603	-139.456285900393	-5.46999855110609	-139.502379396015	-4.34688729191371	122.770341645699	
1394500000	-3.4219109919285	128.948098095265	-5.46735572705434	-139.477090605479	-5.47665888118789	-139.494211168697	-4.36632033969911	122.588814573764	
1395000000	-3.43633762522696	129.040283450467	-5.44430854799043	-139.517237728173	-5.46008904690841	-139.564371528208	-4.37661781665985	122.570184008508	
1395500000	-3.44074007928285	129.165120382917	-5.44041739281933	-139.567460691569	-5.44186897427426	-139.567213131404	-4.4001680583241	122.496332835696	
1396000000	-3.45330379114169	129.215021633557	-5.44748826606311	-139.629014515958	-5.44332163340105	-139.613077372708	-4.40641852120871	122.458750994892	
1396500000	-3.44943183289709	129.36502706551	-5.4339460357367	-139.662857218889	-5.43784318414651	-139.667498159318	-4.43860845183094	122.426073232154	
1397000000	-3.43155456649403	129.4772809479	-5.42399613792906	-139.619671702846	-5.43218705588815	-139.630854136532	-4.44520758636144	122.372551642312	
1397500000	-3.45976329875533	129.588019113333	-5.41198894520171	-139.722464064078	-5.42752635625737	-139.673928397037	-4.45607139437667	122.325970313611	
1398000000	-3.46504594583367	129.772878867791	-5.41667931487078	-139.740331150428	-5.42031365332959	-139.751865307549	-4.47143771848988	122.299922566538	
1398500000	-3.47417361107502	129.808470056923	-5.40796126058558	-139.768008288336	-5.40416365859459	-139.764165105785	-4.50454480214098	122.265740362538	
1399000000	-3.47502424838265	129.965906300582	-5.40029392547728	-139.808835930035	-5.39416420351161	-139.792298785747	-4.50039787191474	122.193666482054	
1399500000	-3.47765235511293	130.013065109762	-5.3920917774538	-139.82506639283	-5.3881331427817	-139.911494185776	-4.52354607489975	122.100035093245	
1400000000	-3.49486422804544	130.072330123761	-5.387172005609	-139.892598964704	-5.3875689441092	-139.862965904902	-4.5350485234415	122.006542837028	
1400500000	-3.48865667268808	130.161726069583	-5.38662302069559	-139.829168132168	-5.36662134956403	-139.845012916688	-4.54857436907828	121.995233476267	
1401000000	-3.50464418170037	130.178890817218	-5.3745060663481	-139.992584761503	-5.36440963111009	-139.937468817516	-4.58275070781483	121.856392050519	
1401500000	-3.50506806072453	130.307822159901	-5.36259632769479	-139.919110100672	-5.35963497142172	-139.943727827305	-4.57925429225837	121.907575529338	
1402000000	-3.50341721421179	130.440539056479	-5.36032719391091	-139.991064224028	-5.36000970417839	-139.967987162556	-4.60518183276029	121.739703014308	
1402500000	-3.52937231883678	130.44879157024	-5.34129418944261	-140.104638881512	-5.33817855703273	-140.088318730186	-4.63184517183161	121.782788721835	
1403000000	-3.54623823873876	130.592057316047	-5.33851581439047	-140.151106509741	-5.33634750201237	-140.131715766173	-4.64339873327024	121.619754117202	
1403500000	-3.53574732952453	130.562071981007	-5.32816182736562	-140.101338020482	-5.33276788690173	-140.175887541051	-4.65879815037412	121.626811908488	
1404000000	-3.55336992598374	130.703901099002	-5.33860275991271	-140.182440239995	-5.30552420350067	-140.199333267472	-4.66976952828319	121.579127663076	
1404500000	-3.56260558283623	130.798670329326	-5.32108586620548	-140.266398913248	-5.31776776032293	-140.23622229529	-4.70301725293555	121.504696544224	
1405000000	-3.57011061616511	130.833384645312	-5.29500012762498	-140.298231581483	-5.30117978341881	-140.252116272557	-4.69683469502795	121.410449015543	
1405500000	-3.58938887241051	130.913951133114	-5.29917271431388	-140.358790857646	-5.2966196520689	-140.444493854806	-4.71964513741606	121.349354905455	
1406000000	-3.59562091608711	130.920014357951	-5.2913991828816	-140.429763648264	-5.28390388054248	-140.36773929458	-4.73725830843431	121.235245312656	
1406500000	-3.59972709987095	130.949501208693	-5.29154411660343	-140.420920763546	-5.27023799513474	-140.432796662787	-4.76963123502435	121.182142663432	
1407000000	-3.61514128653914	131.019165605808	-5.27260291016462	-140.416406906913	-5.27830473106966	-140.431851088177	-4.77111614147515	121.227353130031	
1407500000	-3.63771248474711	131.047913318295	-5.26400215498144	-140.448308920141	-5.25904662198613	-140.502411142505	-4.77557730174297	121.039697921825	
1408000000	-3.64141857285191	131.092030054479	-5.24961581550277	-140.575400026169	-5.23985223954676	-140.59595022393	-4.81058575857084	120.993449454236	
1408500000	-3.66623425288222	131.09482438842	-5.24747195958727	-140.54682756697	-5.23771991402434	-140.681400937496	-4.81971719744219	120.913267689527	
1409000000	-3.6784264849589	131.114708571552	-5.22690075195881	-140.687708910026	-5.23115090777679	-140.647671057894	-4.83541521462679	120.837422583542	
1409500000	-3.68025820673954	131.113935002166	-5.22036739502177	-140.703943256069	-5.2179711888236	-140.713977266195	-4.85500679886315	120.698400807009	
1410000000	-3.727843612742	131.236835560095	-5.23432291208633	-140.843332986605	-5.20845218574058	-140.831509701623	-4.86862424002167	120.754695107694	
1410500000	-3.72189600414995	131.171861783544	-5.20894780413629	-140.877834424652	-5.1961802583443	-140.883970429265	-4.88447624037471	120.62660275508	
1411000000	-3.73534911509991	131.213832427308	-5.22013547439451	-140.982743225324	-5.20353837587734	-140.904048859433	-4.91199955758172	120.575177113085	
1411500000	-3.75406307474066	131.273200547969	-5.18913973221425	-141.080427566846	-5.18362273868517	-140.950749175954	-4.93010202785343	120.530256840413	
1412000000	-3.77249289533457	131.195635711009	-5.1722222163158	-141.061654545259	-5.17866591345819	-141.078541316796	-4.92069994144345	120.467880899534	
1412500000	-3.79368777540633	131.253476966019	-5.16557338981295	-141.169269121147	-5.17398066269972	-141.166536593893	-4.95316491187192	120.378977905111	
1413000000	-3.80925042131041	131.177678318985	-5.16413724767171	-141.243590464883	-5.14742363305542	-141.152600072857	-4.9616945263869	120.218088603168	
1413500000	-3.83640119205282	131.159958123106	-5.1630452087477	-141.340272206476	-5.15289404125878	-141.317037201432	-4.97301211324935	120.257496129885	
1414000000	-3.84281461116879	131.127750048814	-5.14430275594933	-141.356250585339	-5.13182325414998	-141.359450472934	-4.99447192731209	120.168492497754	
1414500000	-3.86282710778351	131.094636132681	-5.14439941166662	-141.428507652733	-5.13221251811026	-141.43778297944	-4.99833348273401	120.082866201877	
1415000000	-3.87195880426386	131.065409907408	-5.12782069016098	-141.427946319173	-5.12668331164087	-141.502749571169	-5.01797726692981	120.02496629865	
1415500000	-3.90884130406686	131.074671718184	-5.12655338650486	-141.583151870223	-5.12976664879656	-141.590238498549	-5.01943213666951	119.982122381795	
1416000000	-3.91532291365259	130.996098923844	-5.11087547033467	-141.544675252068	-5.11870657295619	-141.584958363375	-5.05006621528318	119.864823113162	
1416500000	-3.93514603431325	130.936081809568	-5.09945611259008	-141.712906922237	-5.09940611973911	-141.722361776368	-5.06459699609811	119.789317993939	
1417000000	-3.95972346608532	130.924190684219	-5.10751380043802	-141.772337591705	-5.10352695178485	-141.716639266459	-5.06566875814563	119.642406534795	
1417500000	-3.98696321369132	130.840191119828	-5.09844047380969	-141.873876671023	-5.08946920625071	-141.813724717169	-5.09866849263187	119.656737474242	
1418000000	-4.00863814538649	130.836689426503	-5.08697223833926	-141.903747115895	-5.08677977133205	-141.882362974788	-5.10218925183472	119.575492007695	
1418500000	-4.01912039364669	130.739565269733	-5.08208171128497	-142.02565128838	-5.06940580836574	-142.015753791056	-5.10535727611822	119.60661743616	
1419000000	-4.04498615029942	130.641812971235	-5.06498249278463	-142.15470526459	-5.062125943565	-142.071117196011	-5.12158377801152	119.504787804856	
1419500000	-4.06599484149766	130.562457439987	-5.07275198866358	-142.176796806658	-5.05940172571529	-142.186707782209	-5.10480479722204	119.412265893926	
1420000000	-4.07976843555799	130.497148574579	-5.05008747677652	-142.231019879984	-5.06075183428594	-142.238530834123	-5.14785674607563	119.355180582293	
1420500000	-4.11371155745523	130.410453827665	-5.03495452281515	-142.293326319966	-5.03789287333306	-142.347140558069	-5.16063730763026	119.272341872394	
1421000000	-4.12625145539354	130.232911189546	-5.03956861708284	-142.373218745942	-5.04193383260502	-142.459419187742	-5.16476919685957	119.265251345898	
1421500000	-4.15433596911873	130.154044136171	-5.02308976725731	-142.580962208714	-5.02691832758214	-142.52079242365	-5.15287642280463	119.117585158474	
1422000000	-4.17818875757374	130.074444534628	-5.02341302975402	-142.600390388268	-5.03120869132379	-142.680426314765	-5.16957675698149	119.147737987927	
1422500000	-4.19272929520449	130.03765647436	-5.01470706467576	-142.657987465045	-4.99335565215968	-142.714076069415	-5.18163270232873	118.986872707551	
1423000000	-4.2095810318531	129.910640598198	-5.01526216830453	-142.772455266248	-5.00735326325492	-142.75699303341	-5.19581244839662	119.014205554452	
1423500000	-4.24509038982933	129.71087873136	-4.99552571631894	-142.902787989862	-5.00075180948197	-142.963236013241	-5.21349655177748	118.838313136302	
1424000000	-4.25329896631553	129.544371303895	-4.99388699737333	-142.999799545352	-4.99891959945178	-142.960941008134	-5.21510420111228	118.72959524086	
1424500000	-4.27967766229011	129.386586904792	-4.99370615091745	-143.114506662829	-4.96814986288989	-143.093210544135	-5.205665923663	118.756073727157	
1425000000	-4.31422384052433	129.347910633287	-4.98172551777876	-143.240029989119	-4.97810082267973	-143.100916916902	-5.22090300650842	118.780370129081	
1425500000	-4.32954465706677	129.132947289534	-4.97783062808496	-143.304695637816	-4.98069038971131	-143.297401837292	-5.24471443070948	118.768723764614	
1426000000	-4.35486295257843	129.006452688512	-4.97390879425862	-143.382731052853	-4.96935862054009	-143.41092123282	-5.24593729772054	118.711467867678	
1426500000	-4.36447580335144	128.899474014063	-4.97531853624262	-143.454603833504	-4.96672347739686	-143.434959853314	-5.25414550483619	118.646934604141	
1427000000	-4.39629431264609	128.749636883341	-4.96448035125152	-143.574468085215	-4.96087630517805	-143.554950201613	-5.25259067415857	118.500109853198	
1427500000	-4.42537823382325	128.563513750781	-4.95940880379917	-143.624515294932	-4.94590349334485	-143.578816426639	-5.26107990747938	118.433882167846	
1428000000	-4.43993729073075	128.419920346514	-4.94617057768591	-143.749343176033	-4.93513606050924	-143.74100482949	-5.26741642283077	118.405294277272	
1428500000	-4.46909684640409	128.225137443766	-4.93551308865124	-143.86645321716	-4.93317896767108	-143.873984947217	-5.2639656663699	118.334107529916	
1429000000	-4.48391756572987	128.074154780112	-4.94792290981331	-143.90005570549	-4.9336024831947	-143.846640117923	-5.26585507011339	118.316497451067	
1429500000	-4.5043922654908	128.0000323747	-4.92507678556201	-144.122128497009	-4.92086755377151	-144.008884538319	-5.2854105506467	118.231691777381	
1430000000	-4.54714143509829	127.630337987676	-4.91761623634253	-144.021912477615	-4.92951943622212	-144.192387367684	-5.27793690978324	118.213195478422	
1430500000	-4.55351224501612	127.537119156063	-4.91278111647117	-144.179110538116	-4.91546261411457	-144.28509625523	-5.28612390752323	118.17242753274	
1431000000	-4.57606160062	127.306248097092	-4.9046020018833	-144.386736926055	-4.91619871743638	-144.346024885218	-5.27848957522178	118.113919586107	
1431500000	-4.59766873219875	127.148101048435	-4.92618364686723	-144.396056308177	-4.92273605827369	-144.412413699365	-5.28408257202293	118.093835748836	
1432000000	-4.61850084004267	126.919185280589	-4.90773963194371	-144.481674627046	-4.91670366295058	-144.541020794625	-5.29093121233907	117.996469437746	
1432500000	-4.64697265024328	126.709506830368	-4.89943974828374	-144.646624709726	-4.90736095574706	-144.678330020733	-5.28174278418051	118.031319335917	
1433000000	-4.67009818035179	126.563014080239	-4.90319159445577	-144.733116971422	-4.89552666666035	-144.792470579417	-5.30061013697443	117.926588176927	
1433500000	-4.67972593537204	126.343278799293	-4.89599933229368	-144.853565179397	-4.89942120462564	-144.831057661712	-5.30754490301777	117.905354566398	
1434000000	-4.70158304555136	126.096922953923	-4.88908060797483	-144.947320900476	-4.89173505054795	-144.941311687521	-5.28067026394279	117.853032244836	
1434500000	-4.7189200970195	125.837177253407	-4.89417893597024	-145.046984433266	-4.89710302833443	-145.05079557611	-5.30179342087323	117.827982971418	
1435000000	-4.76543293584243	125.662797261041	-4.88798703339548	-145.160634673974	-4.88999736955393	-145.176394239326	-5.29137139155502	117.758715459534	
1435500000	-4.76869695864925	125.396379568609	-4.88762358043858	-145.304377094022	-4.87308952498595	-145.275203189454	-5.28199800959735	117.794172966673	
1436000000	-4.79073018826376	125.165212472109	-4.87923039843331	-145.314804304146	-4.88453231548174	-145.412425836187	-5.28490646062357	117.767295772369	
1436500000	-4.80100478611575	124.990725233804	-4.8715098107223	-145.465058591474	-4.87450399234364	-145.446888746607	-5.2822087836632	117.660229184701	
1437000000	-4.82539605715769	124.692855669774	-4.87252426113116	-145.5766411989	-4.87414913150162	-145.623718154733	-5.29436070348345	117.722767463886	
1437500000	-4.83420090109523	124.488217946566	-4.87930369475646	-145.695770227113	-4.88660231794533	-145.690387689489	-5.2768727255813	117.619860704954	
1438000000	-4.85895107642621	124.345587420073	-4.86793945313248	-145.790764273998	-4.87550675557613	-145.81377180747	-5.28272071147148	117.698684411142	
1438500000	-4.86637590094346	123.951664938651	-4.86699824871905	-145.907612544655	-4.86553495177215	-145.887055978069	-5.26785708857355	117.545189564976	
1439000000	-4.89971487653221	123.731517001106	-4.86470335739301	-145.924078055931	-4.85391289572077	-145.977121997369	-5.28121767838664	117.576370950649	
1439500000	-4.89314234676129	123.529512035188	-4.88093935810624	-146.036310222849	-4.85884552109698	-146.095077784106	-5.268816382849	117.590925435201	
1440000000	-4.92773525961559	123.268432377657	-4.85709001889547	-146.215778174444	-4.85683451929362	-146.18996884981	-5.26722304039056	117.514719693084	
1440500000	-4.93752139646329	123.048156656411	-4.85934655654062	-146.271217665284	-4.86539812722681	-146.354376454458	-5.2736371660992	117.525216467332	
1441000000	-4.95130533483664	122.868078248987	-4.86142332777087	-146.398923030567	-4.87390346225225	-146.439054903085	-5.26566998830094	117.419637146122	
1441500000	-4.95948962412532	122.522011618544	-4.87994776978467	-146.495197207798	-4.86959696708638	-146.530283462033	-5.25871603497085	117.510355159014	
1442000000	-4.96898535593664	122.281056099472	-4.85952355118765	-146.51566168147	-4.8655028313496	-146.59798771945	-5.25797807168844	117.378146533594	
1442500000	-4.98297383479517	122.140900709164	-4.8617175637314	-146.698699119304	-4.86420624185939	-146.710791492004	-5.2370850027498	117.397595331422	
1443000000	-5.00982841684899	121.849791218204	-4.85648548758666	-146.787043655469	-4.85664966969725	-146.751377272725	-5.24128027434059	117.362723676242	
1443500000	-5.00895552313599	121.567404540861	-4.8586205778334	-146.909566126063	-4.87095262805879	-146.846291182184	-5.24281231228034	117.405119620607	
1444000000	-5.02777900318317	121.384990319702	-4.86931268531955	-146.964230479933	-4.85591972011578	-146.978173358564	-5.23655003414178	117.401468692063	
1444500000	-5.06598613050484	121.045075922376	-4.86639367253962	-147.027390620189	-4.86755933001821	-147.114772798236	-5.21845626772454	117.362828860469	
1445000000	-5.04932332869055	120.929662389949	-4.8619382596227	-147.109257256461	-4.8580289766844	-147.191268691338	-5.21356331362029	117.340271748226	
1445500000	-5.06670847322354	120.678914790173	-4.86616155554861	-147.213117453378	-4.87194909003605	-147.262072474471	-5.20087582683917	117.383153184942	
1446000000	-5.08116151418378	120.357060584284	-4.86040794108351	-147.359211215786	-4.86320647276681	-147.344327623388	-5.20533572932892	117.353353351319	
1446500000	-5.07406634916879	120.136749106243	-4.86810409203801	-147.488342184057	-4.86270989738369	-147.443196850864	-5.20066859307509	117.364737018236	
1447000000	-5.09534198206445	119.88136718035	-4.87791273548908	-147.438685325977	-4.8715549790052	-147.531354063853	-5.18239325920103	117.277044245671	
1447500000	-5.0994632941109	119.632552634775	-4.86035340118097	-147.594487441199	-4.87667310617227	-147.582597671872	-5.18080669397668	117.278157135331	
1448000000	-5.10470027642207	119.386526252182	-4.87438970444569	-147.736150676467	-4.87118793894701	-147.790048936816	-5.17317032617518	117.344604897424	
1448500000	-5.10552860327979	119.252409681597	-4.87928507824704	-147.790038424641	-4.87403127670155	-147.824185907548	-5.16537612320721	117.279433094622	
1449000000	-5.11780325089285	119.030728953414	-4.87383623431684	-147.952416802722	-4.87115499917788	-147.960078860475	-5.15739375506446	117.297999006098	
1449500000	-5.10537393957956	118.802824046803	-4.87768859346926	-147.973119293188	-4.86933779778126	-147.989210211666	-5.15152921567633	117.320024231061	
1450000000	-5.10932527822687	118.609423704224	-4.8702562253541	-148.095758778626	-4.88119353482213	-148.080456515371	-5.14125861411485	117.253963067017	
1450500000	-5.11321198322767	118.300093440859	-4.86270263440026	-148.251682076343	-4.8863221332648	-148.200750979574	-5.14553834415854	117.316892552092	
1451000000	-5.12278949315218	118.001417741924	-4.88332697940973	-148.242462933137	-4.87585500932341	-148.336565048906	-5.12445920632205	117.366093059495	
1451500000	-5.13603165432384	117.882593225381	-4.87197005485735	-148.347099078936	-4.88651323837118	-148.306467119739	-5.12553246354849	117.325538572561	
1452000000	-5.12096156278205	117.688023951503	-4.88708340760497	-148.431922012584	-4.88231441803378	-148.395418106354	-5.11145431120821	117.3398194955	
1452500000	-5.1360623058889	117.439982032909	-4.88792190063714	-148.477417101663	-4.8727931594118	-148.518805845743	-5.09347738255078	117.299425732477	
1453000000	-5.13099015823554	117.423547498933	-4.89464531990393	-148.536297297936	-4.8823916848164	-148.581002334642	-5.09153297793221	117.174316273841	
1453500000	-5.13379367735857	117.06719507674	-4.89126415757546	-148.682127587804	-4.89762355636682	-148.6820174042	-5.09985346294793	117.287277503472	
1454000000	-5.12958740190544	116.960346473384	-4.88817043086723	-148.709698432681	-4.90202374364813	-148.721194243956	-5.07683790633101	117.247044544075	
1454500000	-5.11545003216752	116.724582999602	-4.89427195843667	-148.778636525128	-4.90055254449438	-148.832365429641	-5.08362703495417	117.255555442631	
1455000000	-5.12833917972373	116.529888463237	-4.90344144179936	-148.916223664439	-4.89791232448258	-148.922996041448	-5.08082741976522	117.190799966768	
1455500000	-5.12068656398713	116.425464593657	-4.90791689672765	-148.96398746936	-4.91897986184786	-148.885698926093	-5.06937762129225	117.325290598129	
1456000000	-5.11427727377874	116.258935440941	-4.90218997327145	-148.985118826246	-4.90180172777386	-149.060087564761	-5.04439739553862	117.204750613593	
1456500000	-5.11746845720418	116.125438727095	-4.90817315899157	-149.133905464089	-4.91651265243727	-149.090671209884	-5.04730894295548	117.202516270921	
1457000000	-5.11831565019249	116.033622714694	-4.9237167453258	-149.182512785343	-4.90941437885182	-149.182424159486	-5.03137220066064	117.083663605511	
1457500000	-5.10719363588295	115.735149146321	-4.91944160286949	-149.295305867022	-4.90648217397243	-149.267043703997	-5.03669153037767	117.169119935689	
1458000000	-5.1046250842747	115.681635725196	-4.9143636775754	-149.271537302452	-4.92290385124568	-149.317079041135	-5.02959354358547	117.217368504105	
1458500000	-5.08975117214631	115.425107885638	-4.92531675253339	-149.401964223695	-4.92400832570784	-149.391311525476	-5.01326039567794	117.220820293443	
1459000000	-5.08705667203675	115.296613853081	-4.90805708228094	-149.417019394311	-4.93486853238591	-149.465375499448	-5.01259490454963	117.17625608919	
1459500000	-5.07058838529641	115.228635514095	-4.93672570138735	-149.491700940288	-4.92421438387514	-149.51057571534	-5.0029513333393	117.181881230012	
1460000000	-5.06653327564742	115.091819291592	-4.93543833384517	-149.535337644307	-4.93155578299708	-149.595597682118	-5.00475644428469	117.147594413981	
1460500000	-5.07616171999722	114.955645831728	-4.9335752692791	-149.682601450235	-4.93626904888077	-149.639883129282	-5.01124347582063	117.075555756786	
1461000000	-5.06287626470737	114.894484628006	-4.94353644244424	-149.713794160196	-4.94261212550589	-149.649980122797	-4.98036671274942	117.130507700276	
1461500000	-5.04202245194181	114.732342915405	-4.93898260287637	-149.749982264301	-4.94872827811369	-149.689570273808	-4.98703196533189	117.101214305599	
1462000000	-5.03201468029553	114.639698726924	-4.9477223033891	-149.778191513097	-4.95235166837102	-149.782845993012	-4.98403246876748	117.06176001823	
1462500000	-5.02990816281049	114.516066748362	-4.96377647461758	-149.887389893379	-4.95472147144561	-149.893382405073	-4.98979506100915	117.101805118239	
1463000000	-5.01638573017326	114.429775467498	-4.94905788002463	-149.933132610575	-4.94669513226148	-149.901185389303	-4.98437820602411	117.146608580933	
1463500000	-5.00027319948481	114.466155109964	-4.95942100396963	-149.979344967046	-4.95734063385386	-149.954702418657	-4.96897933500226	117.048916319922	
1464000000	-4.9996202346957	114.324591236149	-4.96348823824945	-149.999425156818	-4.96194535391891	-150.016562581134	-4.97251364542603	117.037941096301	
1464500000	-4.97612601569965	114.214063897655	-4.9650326209724	-150.02163167665	-4.96718958044093	-149.977244097557	-4.95671409109786	117.135259395249	
1465000000	-4.96940568213101	114.172172782182	-4.97573465334447	-150.06239418697	-4.96717161784043	-150.078828189971	-4.96371265135018	117.080623288789	
1465500000	-4.96315496140077	114.037059021332	-4.97098125421008	-150.181751550042	-4.96564922558453	-150.10942254496	-4.95233650867753	116.98130192329	
1466000000	-4.95020209832833	114.051277370567	-4.98327044088158	-150.255532982223	-4.98126570802628	-150.199565889993	-4.95200327900477	116.968423235335	
1466500000	-4.9324791728384	114.001693850545	-4.97757417919221	-150.204942387751	-4.98263909644552	-150.215448126879	-4.94861307511154	116.980682018803	
1467000000	-4.92401637212354	113.969351390697	-4.9809422267023	-150.256002785872	-4.98561363894107	-150.2850305516	-4.95557587134725	116.97006555376	
1467500000	-4.90178653373805	113.943188772041	-4.98611298036576	-150.304789888204	-4.98536663970614	-150.322571227325	-4.94447646467502	116.891421787194	
1468000000	-4.90082619671032	113.855323463899	-4.9903640084373	-150.384629332471	-4.98761212232974	-150.36235724376	-4.94683068942551	116.895355845222	
1468500000	-4.88260042998929	113.827477532751	-5.00288631569685	-150.369652770866	-4.99564818460702	-150.349932079112	-4.93858965483529	116.86160897396	
1469000000	-4.86382584789558	113.803706362018	-5.00261132897674	-150.401634666404	-4.99083684782787	-150.395718056547	-4.93642000708854	116.899293111056	
1469500000	-4.8600733665915	113.745162760921	-4.99644043575971	-150.489164569435	-4.99361361168473	-150.470103396251	-4.93165972707126	116.822622155356	
1470000000	-4.85267061449337	113.822043637597	-5.00546255669232	-150.521184330652	-5.0140011489665	-150.552352693236	-4.94143898880754	116.831291621015	
1470500000	-4.83405065618322	113.809333081678	-5.00297426929947	-150.596247685648	-5.00100290900484	-150.546276030888	-4.94748964081705	116.822865090971	
1471000000	-4.82383610183744	113.776391438749	-5.00467046068097	-150.592123993455	-5.00612962680195	-150.559583846818	-4.94596866237561	116.689004737809	
1471500000	-4.78646032689773	113.905381231175	-5.01156267372748	-150.635290481601	-5.00415460077148	-150.618660466644	-4.9428546229156	116.666102774028	
1472000000	-4.7809888137747	113.786518756561	-5.008984070543	-150.653982556634	-5.0125096649184	-150.638633476453	-4.94773909391833	116.662501972633	
1472500000	-4.77740547074118	113.800912214803	-5.0147165343795	-150.639264006042	-5.01355244882605	-150.675903232079	-4.96829873664475	116.612508531063	
1473000000	-4.74983547134833	113.816831532254	-5.00776824383741	-150.638841375013	-5.00806358024589	-150.645848904316	-4.94831231790714	116.561386718049	
1473500000	-4.73818443250589	113.861668278376	-5.0150162815738	-150.781867459003	-5.01732966650873	-150.719422313021	-4.95458756174612	116.505946330497	
1474000000	-4.72648474649639	113.910851053437	-5.02591149995641	-150.7353816188	-5.01973086640299	-150.722116283729	-4.96311501583586	116.520239315347	
1474500000	-4.70415437357091	113.887187816312	-5.02076564443235	-150.755720411605	-5.02172958125583	-150.736192692328	-4.96166956111959	116.439430003825	
1475000000	-4.68919936191235	113.960419790811	-5.02452590297526	-150.754906841114	-5.03292156434943	-150.74326792231	-4.96214117872856	116.452997193707	
1475500000	-4.6777489931518	113.968376307735	-5.0351158168349	-150.800475269795	-5.02322547517265	-150.780526023587	-4.96744412822258	116.43391158045	
1476000000	-4.672678804463	114.131997297868	-5.02886006056258	-150.916075486512	-5.02705977594472	-150.864645419249	-4.96576098295021	116.367571882794	
1476500000	-4.64575927539234	114.154503435118	-5.03238596425667	-150.842101542303	-5.0289122934678	-150.827931167053	-4.98933426560124	116.327134383909	
1477000000	-4.64277195367562	114.146798095078	-5.03510564380878	-150.895642081799	-5.03310812123739	-150.901507703031	-4.99028576437316	116.345200807627	
1477500000	-4.62199531220761	114.216110704391	-5.02225430437595	-150.896382867164	-5.02665921209329	-150.852536363288	-4.99185413743564	116.137193919228	
1478000000	-4.61264125485228	114.317756901007	-5.03190497660736	-150.926745387333	-5.02526787795752	-150.941132817462	-4.98972022244674	116.09783783291	
1478500000	-4.58052012384788	114.458993982697	-5.03357160206718	-150.930012628128	-5.03582891972628	-150.944266044273	-4.99868046927253	116.166092556298	
1479000000	-4.56802202630456	114.451462331121	-5.03183666125429	-150.985553657252	-5.02649527859827	-150.960551767944	-5.01471920498168	115.95915573357	
1479500000	-4.55557520521532	114.548623312463	-5.02900716607908	-150.9590504224	-5.02539475013197	-150.941400372263	-5.01085670761179	115.963505930552	
1480000000	-4.55421734039873	114.695250202328	-5.03461859603915	-150.953558793365	-5.03103224755569	-151.027020300959	-5.02891707208765	115.918623120845	
1480500000	-4.52907803062194	114.750453438975	-5.04376333329281	-151.05567397042	-5.03892849287073	-151.027838309375	-5.02207117565833	116.03548950491	
1481000000	-4.51260049504132	114.892674784166	-5.02380080696671	-151.063903007334	-5.03447066481924	-150.986621375545	-5.04351069921361	115.806498940127	
1481500000	-4.50485690652911	115.03713326342	-5.02598298632026	-150.990724253829	-5.04237963911452	-151.029854734328	-5.05753809875747	115.742665377586	
1482000000	-4.48388804136334	115.078967883068	-5.03233949121489	-151.086834612026	-5.03011538514823	-151.042453649828	-5.06280013442729	115.662706649884	
1482500000	-4.48026741565495	115.237979347604	-5.03368993858081	-151.049238560427	-5.02399925798543	-151.100857164468	-5.07087844340798	115.66577944037	
1483000000	-4.45481412039382	115.206562427566	-5.03226076462633	-151.048221675598	-5.03195417084205	-150.997398455638	-5.08095503183401	115.589602769635	
1483500000	-4.44655782855424	115.396794235723	-5.03197277578234	-151.051261342152	-5.02313914415963	-151.072718049141	-5.09186581835023	115.532513869025	
1484000000	-4.42951973425545	115.512556724986	-5.0462272994648	-151.05724279346	-5.03920534887363	-151.047856636062	-5.09937201625407	115.503740796113	
1484500000	-4.4291845495232	115.526608330301	-5.030004992788	-151.109238422346	-5.0359125231748	-151.090633708649	-5.10152977404364	115.371636029749	
1485000000	-4.39621109506634	115.809071971135	-5.02160250286175	-151.056690391481	-5.030174387278	-151.058371307887	-5.10584058791762	115.326915890802	
1485500000	-4.39368955132245	115.911503190294	-5.02717271097794	-151.110246751427	-5.02530834625292	-151.095791646985	-5.13623998429136	115.289378727348	
1486000000	-4.37334847408711	115.914969383663	-5.03460805111066	-151.147170714666	-5.02079241576686	-151.035293439912	-5.14289532757968	115.227384937545	
1486500000	-4.36637186320556	116.059042183751	-5.00672253489786	-151.143752169158	-5.01999885356262	-151.145291112207	-5.15342771033288	114.984278172888	
1487000000	-4.3503653857188	116.285407891524	-5.02073210229262	-151.134034239916	-5.01959880263194	-151.101765339323	-5.17284711866378	115.027228843329	
1487500000	-4.33760917718648	116.428148830855	-5.01187385056345	-151.097566756852	-5.01724887060097	-151.111293864816	-5.18371946438353	114.925843597906	
1488000000	-4.32297728132346	116.423387047524	-5.01298197908335	-151.139546078495	-5.0067960018563	-151.049326298886	-5.18462190845781	114.900049502024	
1488500000	-4.32623820511218	116.590361592644	-5.01358697656602	-151.147810599569	-5.00565778110873	-151.137649842979	-5.20410531035683	114.883879248505	
1489000000	-4.30044239040616	116.727410105263	-5.00621106630935	-151.156693831027	-5.00530405068128	-151.143324272512	-5.22555730573561	114.776817330394	
1489500000	-4.2790433424479	116.977299412478	-4.9985945846419	-151.12837447316	-5.00361261651028	-151.109201990529	-5.22636856256746	114.647264782867	
1490000000	-4.27143266658506	117.080011634262	-4.99287345208905	-151.163994352663	-4.99923909025437	-151.139378439978	-5.25083563876787	114.516496303841	
1490500000	-4.27499258438033	117.18141074054	-4.98517208066142	-151.140101348201	-4.98849582293064	-151.21305885776	-5.25359294927911	114.455737055977	
1491000000	-4.24354689770323	117.47027233465	-4.9902455695819	-151.161697852212	-5.00172758473403	-151.114563190515	-5.27086184316995	114.409409223399	
1491500000	-4.23807570502284	117.457847237703	-4.98475446592039	-151.149099295454	-4.9765407295772	-151.191032947266	-5.28731132745191	114.322009007419	
1492000000	-4.23697694470481	117.687666079442	-4.97505815641659	-151.158215415379	-4.98314816552617	-151.157458865593	-5.29276110764126	114.208528348347	
1492500000	-4.23450755857565	117.78008150496	-4.98394139270294	-151.1863174513	-4.97894474117073	-151.197975919901	-5.32775328674774	114.131167081292	
1493000000	-4.20421659612077	117.942752031448	-4.97081400505439	-151.273236473614	-4.97141382662616	-151.202822658876	-5.33952567752758	113.973516167785	
1493500000	-4.19936115628173	118.165017292104	-4.97168639677384	-151.197819610573	-4.96210813852753	-151.223822006708	-5.35248162477433	113.964224622813	
1494000000	-4.18459989827773	118.313862394218	-4.96184563547489	-151.18418336079	-4.96625278610009	-151.246508549809	-5.35599857070965	113.78755804645	
1494500000	-4.18265665959637	118.431436935502	-4.95415123632446	-151.224394444774	-4.94940319329166	-151.21371593911	-5.37999136455437	113.776385946937	
1495000000	-4.17120801272176	118.557160437444	-4.95436697749796	-151.224564726584	-4.94582273848519	-151.274149789761	-5.40498113795602	113.749185630361	
1495500000	-4.17891993254749	118.738927489257	-4.9496266840441	-151.196482814791	-4.94783215129424	-151.255118517656	-5.40455709959524	113.540499335819	
1496000000	-4.15437022782011	118.885788372731	-4.94445711475121	-151.278630565255	-4.93989186645967	-151.265563721047	-5.44234664366931	113.422734668286	
1496500000	-4.14196683135602	119.014272730192	-4.93632603060244	-151.287144232715	-4.93710371176564	-151.273418249076	-5.46251266974725	113.357082575739	
1497000000	-4.13986483471637	119.244603893059	-4.92187334828302	-151.171431026845	-4.91554590605679	-151.334070465733	-5.45954629072278	113.283195381346	
1497500000	-4.12582963314294	119.463790512143	-4.91113595895579	-151.263293430394	-4.91185679207579	-151.232364568295	-5.4963820744754	113.168141786407	
1498000000	-4.1240998791371	119.540315578111	-4.89962083816193	-151.317131019011	-4.90335724332808	-151.211561781229	-5.50550027185627	113.089269616565	
1498500000	-4.11584756257749	119.755553245391	-4.90374330702509	-151.321268485059	-4.91158132373579	-151.333220566934	-5.53266632148336	113.052602636527	
1499000000	-4.10865168334195	119.834359545118	-4.90252532127331	-151.345508359341	-4.89099080875882	-151.314154569929	-5.54765296772717	112.88972801398	
1499500000	-4.08821797859204	120.045688645774	-4.89624951132051	-151.29952859239	-4.88422876483058	-151.303013332872	-5.57219676956676	112.792602849683	
1500000000	-4.10445578619551	120.096321770787	-4.86864231519727	-151.327994332816	-4.86993806364466	-151.319532755667	-5.58222214127695	112.661832493319	
1500500000	-4.07825153151125	120.282578857251	-4.87428859784411	-151.36212846715	-4.85993088214764	-151.316196704631	-5.60167530499224	112.587730336645	
1501000000	-4.0928222512615	120.527867120451	-4.86293674971933	-151.381863158097	-4.85603100553128	-151.438892855465	-5.62276333595511	112.53155450083	
1501500000	-4.09289168053618	120.630092505769	-4.85320778383225	-151.429550949841	-4.85546861957837	-151.398950501322	-5.64412611142488	112.464221371884	
1502000000	-4.07755745318116	120.805996854869	-4.84471996111486	-151.36360069207	-4.84061069451703	-151.430388060798	-5.6566785029361	112.362717487962	
1502500000	-4.07469371347701	121.022353353145	-4.8360928204476	-151.478781316314	-4.84383788899681	-151.489657140084	-5.67851330004406	112.184112008595	
1503000000	-4.06970138316576	121.110304924468	-4.84466713714585	-151.456470037064	-4.81600406244561	-151.506019418522	-5.69196767366689	112.170084092856	
1503500000	-4.08009987466756	121.217242399568	-4.81163629460943	-151.483403886528	-4.8133588349125	-151.47166938386	-5.70930354537941	112.055886069386	
1504000000	-4.06604442556254	121.456632660939	-4.79981174090897	-151.540706349111	-4.79722270487782	-151.451438267162	-5.72664076686477	112.010611011762	
1504500000	-4.05891988622954	121.581950316302	-4.78487696935551	-151.524635226562	-4.7900639200595	-151.580093961884	-5.74529191144265	111.770259859277	
1505000000	-4.04170229076991	121.683204461025	-4.77931810691401	-151.547114145872	-4.77699406152141	-151.502693863427	-5.76592621490674	111.783783251362	
1505500000	-4.06699024007161	121.956029545965	-4.77964007589034	-151.64473556995	-4.78804015649016	-151.570012524808	-5.78103182592785	111.593388780294	
1506000000	-4.05695125293408	121.895486629648	-4.76460252046127	-151.685687495239	-4.75551981087733	-151.575846377871	-5.80129567894968	111.509403267475	
1506500000	-4.0680235547622	122.246035127294	-4.75603220843009	-151.669666765681	-4.75239228199566	-151.648613207076	-5.80879202861922	111.444142440645	
1507000000	-4.07426004112832	122.255161026781	-4.74040891181051	-151.688607756432	-4.74551963797876	-151.668960442049	-5.84436607607043	111.32234507069	
1507500000	-4.06461514487248	122.441929729601	-4.73116619061519	-151.76422901932	-4.73987380283998	-151.672696841304	-5.86022516685162	111.229606520117	
1508000000	-4.07209714234532	122.538433647381	-4.72677954039404	-151.780055488277	-4.71949351698484	-151.69620502277	-5.87894291781096	111.138905454979	
1508500000	-4.06293463123086	122.736525667049	-4.71266471826709	-151.73936923606	-4.70360841271117	-151.880420590387	-5.89860994626864	111.043027971445	
1509000000	-4.07070972121898	122.745896332095	-4.68907281494099	-151.778672558147	-4.68863057952222	-151.735247058997	-5.91139608298821	110.952370449525	
1509500000	-4.08541208951933	122.973619983446	-4.68702711050791	-151.94713044392	-4.68753732401991	-151.885640239725	-5.93082885847849	110.870914890137	
1510000000	-4.08285558853842	123.032662822434	-4.66907539422254	-151.972537090546	-4.67073492072296	-151.852329774371	-5.95798731772759	110.754291418066	
1510500000	-4.09453319603519	123.191083866419	-4.671304637005	-151.927893889119	-4.66341138299103	-151.923005868605	-5.97400745413156	110.647943826315	
1511000000	-4.07946682224819	123.377877473584	-4.66460877690599	-151.941106391209	-4.65990900989629	-151.920470005951	-5.99387883447662	110.600715663619	
1511500000	-4.08879859729677	123.407260871886	-4.65896712447755	-151.960022184486	-4.63915811206745	-152.062447438633	-5.99742415751371	110.488614206543	
1512000000	-4.10711306766443	123.504041630067	-4.63357086221268	-152.102123969817	-4.62054442213683	-152.11196537478	-6.03440005728396	110.37633549661	
1512500000	-4.10485390126248	123.664778220229	-4.61070031956511	-152.198438489213	-4.61190601623132	-152.189970330889	-6.05116168475484	110.332588491456	
1513000000	-4.11298724959815	123.709531268392	-4.6094392888063	-152.217892158645	-4.59969869588991	-152.22935482801	-6.07904265916863	110.219154764417	
1513500000	-4.14192170359086	123.854234863783	-4.60067397799082	-152.187316435352	-4.59563808899371	-152.284386528785	-6.0742926905315	110.144113749452	
1514000000	-4.13318808189724	123.871615464848	-4.57368871039654	-152.341762951374	-4.58256345490805	-152.377051226445	-6.10009179069322	110.074468414239	
1514500000	-4.13891613285263	124.074102939665	-4.56739222046109	-152.337148014066	-4.56179411717526	-152.343104550652	-6.12639950099521	109.940306583352	
1515000000	-4.14992728097287	124.087049449882	-4.56229681174732	-152.483303178088	-4.55210933354457	-152.482663509264	-6.13832169002429	109.888534702567	
1515500000	-4.16745028071339	124.203668594826	-4.55168832464042	-152.520377181917	-4.54085257830509	-152.561879103186	-6.14015106181917	109.806531736535	
1516000000	-4.18861393803992	124.339575625834	-4.53113784152208	-152.552250186674	-4.51827236668397	-152.498060639732	-6.18983879146582	109.735655516269	
1516500000	-4.1915278404155	124.363562651481	-4.52385679916338	-152.671204271354	-4.52613709452458	-152.675411217657	-6.20043458200871	109.629751643705	
1517000000	-4.21550828902144	124.480323016306	-4.50683180654343	-152.762871573015	-4.50995189052462	-152.713328061634	-6.21824983152913	109.628429446089	
1517500000	-4.21838677620656	124.494882478762	-4.49700871156674	-152.823106763269	-4.49475580393198	-152.817818358931	-6.21674975114263	109.625917079463	
1518000000	-4.23506115299681	124.552454815972	-4.47836440938703	-152.88102794062	-4.48211916812274	-152.865062176842	-6.24038866454411	109.59777166897	
1518500000	-4.242814349793	124.62231678784	-4.46928974066362	-152.982819407144	-4.46698914969799	-152.900805512892	-6.24945956104327	109.419475938018	
1519000000	-4.25011530533553	124.76582005151	-4.4715336946163	-153.003660345513	-4.46384815141893	-153.03428373301	-6.29576664450222	109.435207957307	
1519500000	-4.27445333890295	124.747323071461	-4.4482009984799	-153.103842660617	-4.44388456115125	-153.071448675286	-6.28518685102048	109.363744936634	
1520000000	-4.29169475412226	124.899121910727	-4.44922036531125	-153.181156051812	-4.44230921674089	-153.118082869529	-6.30119675095172	109.240928348272	
1520500000	-4.31101740016759	124.815855134432	-4.42525876012335	-153.278268393785	-4.41475513872826	-153.257819918326	-6.32357960221585	109.144440635082	
1521000000	-4.32891414838762	124.871318614257	-4.40747397906703	-153.303863000375	-4.41537898853568	-153.341998564402	-6.35202004286317	109.192350792828	
1521500000	-4.35003464509816	124.948461861582	-4.41335762748686	-153.469392428485	-4.39870352900203	-153.380584896092	-6.34909638417089	109.139095465022	
1522000000	-4.37075403427647	124.995082303264	-4.39097334729709	-153.541730079231	-4.3960039468736	-153.550301911564	-6.37945539187827	109.097336285028	
1522500000	-4.37597021822152	124.983575043818	-4.37997108099621	-153.62578809691	-4.38175105779768	-153.594655705541	-6.39387004690177	109.01057100772	
1523000000	-4.4121918321395	124.969369006258	-4.37284442104558	-153.664646076858	-4.37018368427464	-153.69138305724	-6.40342968008999	108.97780423879	
1523500000	-4.42950936681562	125.014038291557	-4.35558104493019	-153.812650235767	-4.35886398454503	-153.801121839248	-6.40840631038211	108.892925889198	
1524000000	-4.44189954524878	125.033425902079	-4.34601194431291	-153.858068864979	-4.34103462935525	-153.858247635106	-6.44666409570169	108.83165035252	
1524500000	-4.4779742980957	124.9600479097	-4.32703632480082	-154.001802255866	-4.33480360787768	-153.934751510137	-6.45246150185945	108.920245831987	
1525000000	-4.50343687280577	125.040299949895	-4.32719337648143	-154.12658761949	-4.32665248762824	-154.050975154593	-6.46984996348132	108.865718996826	
1525500000	-4.5278033323215	125.101154730141	-4.316626834724	-154.269008618694	-4.31035759507471	-154.175862902215	-6.47209546432135	108.818262859202	
1526000000	-4.5475905349169	125.050649987214	-4.29855268111321	-154.325350635068	-4.30853996031485	-154.283466543486	-6.48162508043672	108.905922581315	
1526500000	-4.57232011947921	124.969412580346	-4.27563374716929	-154.385310857134	-4.28664186065003	-154.418648676843	-6.50670662616185	108.744107600866	
1527000000	-4.59707646715112	124.982915376769	-4.27927278403796	-154.429420486476	-4.2758851194969	-154.473874736308	-6.52399100431981	108.812574323431	
1527500000	-4.62696712457171	124.883005021957	-4.27392499611964	-154.615657380431	-4.26148725901367	-154.573104620363	-6.52808679207824	108.694091739453	
1528000000	-4.65827536680194	124.878793655037	-4.26755418065641	-154.712570083958	-4.26026324962587	-154.72760156003	-6.55035565626579	108.805816758761	
1528500000	-4.69142064116624	124.881759009525	-4.25439284245212	-154.783704530403	-4.25225050723159	-154.79697864911	-6.55883996644596	108.832095058123	
1529000000	-4.73252266902915	124.83657631635	-4.24287222353518	-154.895533319553	-4.2499198074033	-154.847137915065	-6.55335253463121	108.742422110507	
1529500000	-4.74951238581894	124.703580019552	-4.23551583238611	-155.030662900248	-4.23743686846934	-155.069393811251	-6.56607088316845	108.743597366165	
1530000000	-4.78790761770608	124.719800738428	-4.22151153767114	-155.190021123572	-4.2244357866283	-155.161115802733	-6.56776058254901	108.620740531979	
1530500000	-4.81944751300614	124.692587969667	-4.20581938803948	-155.24348030889	-4.20822633803391	-155.201335048937	-6.58173782183708	108.775686869193	
1531000000	-4.82707217659729	124.591104308719	-4.21510078811586	-155.40620750515	-4.21492209363737	-155.450545626259	-6.59321652307499	108.881235988298	
1531500000	-4.87412798234813	124.605301782861	-4.20164574267834	-155.546302044429	-4.19892736794166	-155.473597782189	-6.5860166692939	108.858426208741	
1532000000	-4.90086117208432	124.347455921297	-4.19641966396938	-155.545134532181	-4.18894062909661	-155.558972053534	-6.60441532795174	108.773408184728	
1532500000	-4.93189633761664	124.386789829409	-4.19588077278873	-155.746555220153	-4.18444461258219	-155.719858086229	-6.63452288718585	108.852892090051	
1533000000	-4.96520735239185	124.237279243048	-4.17651235792882	-155.834391641763	-4.17674914615992	-155.874711139335	-6.62386701451056	108.887138908601	
1533500000	-5.01891388926297	124.21005914754	-4.16946653193073	-155.882818138095	-4.16705652715525	-155.943832070015	-6.63868896895166	108.840031847258	
1534000000	-5.03069550939607	124.034091483825	-4.15597708929082	-156.112201071274	-4.1509095663538	-156.043409523812	-6.62958612594767	108.908826025977	
1534500000	-5.07155046959851	123.92865082869	-4.15277261429015	-156.15848098334	-4.15033022946529	-156.186101115965	-6.64952474390718	108.985321560037	
1535000000	-5.10557366663032	123.728725278438	-4.15643698372188	-156.256184392646	-4.1554707932611	-156.338339775578	-6.65957529650908	109.058967631271	
1535500000	-5.15210946795514	123.740849642479	-4.14662863949818	-156.410187835066	-4.13138516764876	-156.414098791647	-6.65332942484516	109.061852314395	
1536000000	-5.19740505629726	123.572167416668	-4.12951927622677	-156.599495227446	-4.1227636387187	-156.61583398715	-6.66155820258697	109.176073239116	
1536500000	-5.24239177776097	123.438396631537	-4.14572460844933	-156.745605929035	-4.12456194454947	-156.679760053891	-6.67212185521219	109.041251814334	
1537000000	-5.26859605320883	123.350798741307	-4.12055997331693	-156.8749578795	-4.13124371542414	-156.890731559677	-6.6498506134033	109.157079933015	
1537500000	-5.30111321341904	123.240822381979	-4.1177166587125	-156.99199987132	-4.12691070875226	-156.995620700851	-6.67020645197493	109.194202920398	
1538000000	-5.35604840586257	122.962815635618	-4.11150145265926	-157.089404189481	-4.11912566491817	-157.114028654092	-6.65170317737396	109.200511045015	
1538500000	-5.38864193899558	122.942775681432	-4.10795806764643	-157.180937820411	-4.10565739813242	-157.175691867022	-6.67559966146527	109.341361280068	
1539000000	-5.4141132113034	122.767185848343	-4.10608155244551	-157.347177569823	-4.11250403794252	-157.366538308334	-6.68157657990495	109.37088412775	
1539500000	-5.47900636437527	122.515589142087	-4.10984237676871	-157.491917172579	-4.11528180950675	-157.488189065787	-6.68756431756596	109.407447875384	
1540000000	-5.4973553036515	122.311569336062	-4.10288430815726	-157.633538589387	-4.10089069973234	-157.673267979964	-6.67245375483194	109.484220615138	
1540500000	-5.54804931379831	122.12032943314	-4.09621095657116	-157.757690606271	-4.0982971760451	-157.718116480079	-6.66811310781712	109.36211814192	
1541000000	-5.57677233990667	121.871942069647	-4.10065718061281	-157.890322882895	-4.09515013834891	-157.881398742055	-6.66861857608827	109.593726345175	
1541500000	-5.61618381290967	121.823749669854	-4.09905048485479	-157.932996566368	-4.09204325291209	-157.916916507787	-6.68545635108829	109.501801135065	
1542000000	-5.67033715034262	121.582780867566	-4.09848517974393	-158.126217120499	-4.08975364991582	-158.143457408435	-6.68098192181009	109.712905726953	
1542500000	-5.70252757029826	121.505255598716	-4.09738259693155	-158.247341964733	-4.08631884485601	-158.239529862169	-6.66020032201515	109.778032665396	
1543000000	-5.7466022410142	121.073517986928	-4.09162019613465	-158.323906264753	-4.0954339416886	-158.393525720406	-6.66784937995693	109.772531884916	
1543500000	-5.78209370257729	120.875592859258	-4.08137514245564	-158.443410267383	-4.08873485386381	-158.531261954713	-6.66695329359557	109.916255635762	
1544000000	-5.84361671392691	120.741496795413	-4.09595563296127	-158.60803530484	-4.08708540214388	-158.644457315958	-6.66003599072391	109.994903452349	
1544500000	-5.86644133601999	120.481055771868	-4.08375765634006	-158.698587487187	-4.0834745548723	-158.688486242652	-6.65865138164443	109.986471071797	
1545000000	-5.90147315671132	120.231508243616	-4.08674381206648	-158.81797853027	-4.0939238875615	-158.872893292486	-6.65483675754945	110.010421226811	
1545500000	-5.93916547625219	120.031394428107	-4.08189949538656	-158.935288388025	-4.08071936678206	-159.012382779342	-6.6695344926367	110.183234342583	
1546000000	-5.9833292419703	119.748060192538	-4.08315214460591	-159.042657210302	-4.09250577825369	-159.029314115466	-6.6505377700837	110.140168961382	
1546500000	-6.02598147506923	119.552727338297	-4.08576318128091	-159.217907856033	-4.07979689069338	-159.218625755467	-6.65097129150686	110.172187336121	
1547000000	-6.06866269218202	119.311152423301	-4.08840182065422	-159.316723120941	-4.08737392722498	-159.293734411585	-6.65384118959139	110.280830535957	
1547500000	-6.10686709444138	118.973085654936	-4.08569185477531	-159.467540800408	-4.07381979112403	-159.466575171201	-6.64300425237415	110.310996120924	
1548000000	-6.15369129879507	118.813831580168	-4.0917193800985	-159.562799756207	-4.08889844222908	-159.593554200266	-6.63722786133836	110.255730876188	
1548500000	-6.15632761559939	118.455364702193	-4.09145713614299	-159.608100343796	-4.09962877506296	-159.674123124115	-6.62204999330259	110.387559845043	
1549000000	-6.21863627777054	118.314265301218	-4.11081699072319	-159.828831421559	-4.08857759841595	-159.789900252956	-6.60899285769442	110.419310622759	
1549500000	-6.2654467297157	117.981751320789	-4.09098742584997	-159.941447950037	-4.0974216691442	-159.90596782884	-6.60621065571416	110.559237886525	
1550000000	-6.28327827850892	117.613377235738	-4.08833530390961	-160.042381569941	-4.10299191863364	-160.027684609386	-6.6124929025226	110.509697892622	
1550500000	-6.33088837981573	117.318883524021	-4.0986402020264	-160.28312706274	-4.09770408629601	-160.122543537438	-6.5988463053096	110.729850110782	
1551000000	-6.38707941020038	117.059133416039	-4.10766996721616	-160.308907710422	-4.10281041667442	-160.30224447812	-6.58464486858044	110.619749664509	
1551500000	-6.40561066441968	116.764493242315	-4.09213258224131	-160.378392410957	-4.10894036094465	-160.402543648549	-6.58784726445444	110.721885604604	
1552000000	-6.42671089468287	116.489634141006	-4.10557816282314	-160.469626228598	-4.10809602537234	-160.471190168383	-6.57342838790972	110.750411602947	
1552500000	-6.46690109034457	116.277719738621	-4.12586212765533	-160.583068436117	-4.11762346650545	-160.646158595158	-6.57084414637088	110.79793751696	
1553000000	-6.50059486094677	115.955450299606	-4.12585257648122	-160.701620045971	-4.10779464675105	-160.71277300521	-6.54687890237646	110.877938552547	
1553500000	-6.53021731061738	115.67776168561	-4.1270910482232	-160.847082390578	-4.13031928397621	-160.821912097378	-6.55493174538561	110.939948551529	
1554000000	-6.56946930102952	115.359379658772	-4.12813986112604	-160.966230592766	-4.12415510023953	-161.001315161274	-6.55421985497079	110.946927969919	
1554500000	-6.59973926484192	114.985860829366	-4.13671207481376	-161.004393468226	-4.12807294563429	-161.024891768125	-6.54337765269424	111.000485569121	
1555000000	-6.63943990111835	114.727636256526	-4.13352011746663	-161.164857326134	-4.11952456520588	-161.11726645349	-6.52363708981483	110.995037111184	
1555500000	-6.6456298444452	114.41848721932	-4.13952170835731	-161.174167829941	-4.14925919859746	-161.224849913881	-6.52426953451741	111.084805258084	
1556000000	-6.6963957361886	114.100629920623	-4.13739246440601	-161.376049089982	-4.13599318794264	-161.34380977768	-6.51873196558268	111.041623904091	
1556500000	-6.71480835684821	113.743326873157	-4.15558114693307	-161.379372850239	-4.14800967882337	-161.4384263688	-6.50289927342901	111.217427986488	
1557000000	-6.74678773218468	113.483400612644	-4.16208033210269	-161.565450286263	-4.16139579146876	-161.547349495462	-6.49861126307372	111.183132733407	
1557500000	-6.75995725808616	113.07014504477	-4.15556588521705	-161.62429573505	-4.14807655715417	-161.660283567197	-6.48781075874942	111.11240568963	
1558000000	-6.77494346318123	112.825473488906	-4.15530299087847	-161.645564568674	-4.15135913015364	-161.773624585865	-6.48304304622076	111.180596611526	
1558500000	-6.80477053835857	112.479074237648	-4.17444986003977	-161.829429985425	-4.17291431501214	-161.843230113429	-6.48724095279444	111.155261263336	
1559000000	-6.81217357361458	112.179441698413	-4.18264787231047	-161.856491593133	-4.18348290288325	-161.948273394585	-6.47424683277949	111.226485917423	
1559500000	-6.82996416116002	111.847181843859	-4.18366537622215	-162.029814575556	-4.17340272194633	-162.009191336692	-6.46753555712401	111.189657595886	
1560000000	-6.87325056314483	111.532662097666	-4.19246586597688	-162.074501473917	-4.19191919158874	-162.133921277351	-6.46846540122068	111.185300277037	
1560500000	-6.87250098754031	111.146008214709	-4.2047070855223	-162.163267904333	-4.19594048777541	-162.081085788227	-6.44503371768453	111.305149159284	
1561000000	-6.87854955424326	110.954263561488	-4.20899173520476	-162.285786631924	-4.20618502053279	-162.231723018435	-6.43594294614593	111.212484993206	
1561500000	-6.89836459583663	110.548308294874	-4.21314850072989	-162.345386429138	-4.20432978520829	-162.301610846887	-6.43232856114548	111.24646805746	
1562000000	-6.90859271419659	110.30064155405	-4.21756406688439	-162.453997078785	-4.22022576606267	-162.410349537951	-6.4258011461638	111.224885047655	
1562500000	-6.92078519131669	110.058912281158	-4.21865318087941	-162.437993665158	-4.2346386301376	-162.432093665497	-6.41929101720204	111.263189084956	
1563000000	-6.94338226361992	109.569370405977	-4.2246953516257	-162.563536049373	-4.22923654644221	-162.572679774899	-6.4220377768308	111.21105479002	
1563500000	-6.94675664078135	109.365452571967	-4.22933657229473	-162.617419183623	-4.22895701858742	-162.643136147779	-6.40409503128965	111.249699846431	
1564000000	-6.94444997200274	109.040371556439	-4.23991000440397	-162.6998929237	-4.23030728059735	-162.669993439679	-6.41310929987907	111.242889369155	
1564500000	-6.95012115134169	108.702394839909	-4.24466249135082	-162.738585109781	-4.24186068044995	-162.808072970083	-6.40305812938313	111.205272810166	
1565000000	-6.94315777833463	108.505911577564	-4.25342923936777	-162.840438743229	-4.25168588695623	-162.85362179779	-6.40228287040078	111.191390094235	
1565500000	-6.94930236417438	108.179502083589	-4.26089048356493	-162.903538538877	-4.2622811312518	-162.931706031011	-6.38418805214265	111.102543304449	
1566000000	-6.95991630097475	107.962578241976	-4.25979807800733	-162.971207748153	-4.26844596195511	-162.961735520523	-6.38176351071423	111.07058701246	
1566500000	-6.96416516568486	107.690891927179	-4.2784139249102	-163.058856817768	-4.27875212346767	-163.015279177859	-6.40261674128215	111.101941437204	
1567000000	-6.93927080303191	107.412750701979	-4.27668481423278	-163.082428697525	-4.28213199691428	-163.105593681151	-6.3863004512259	110.999062929248	
1567500000	-6.94891510665312	107.112496024511	-4.29153799694987	-163.15709910193	-4.29038050080693	-163.126428149549	-6.37410983599783	110.961805554656	
1568000000	-6.95795958466917	106.808629818363	-4.2854541446492	-163.224372245913	-4.29294326255506	-163.231345148129	-6.38226424607839	110.898391312049	
1568500000	-6.93209378777259	106.569054884835	-4.29969347783114	-163.260656462784	-4.29930698657234	-163.280191144519	-6.39707938582151	110.868493391329	
1569000000	-6.93512966105941	106.331018528098	-4.30253295684797	-163.304317000303	-4.30773342525027	-163.320141533467	-6.37881788263177	110.806480367197	
1569500000	-6.91878229756568	106.064035789094	-4.31751685775487	-163.318555104398	-4.31330610429902	-163.372070189857	-6.36610223642338	110.758580077772	
1570000000	-6.91952157022088	105.800967890023	-4.32357784558943	-163.40252360326	-4.31580045242973	-163.420607626546	-6.37602986726559	110.734251404284	
1570500000	-6.91776607838866	105.491281969065	-4.32577070414478	-163.388097406775	-4.31855535674395	-163.469747340593	-6.36409746617951	110.625048241329	
1571000000	-6.91260240665829	105.39368012903	-4.33051446754365	-163.507236789401	-4.33769834828334	-163.520537982286	-6.36619344608199	110.629547540783	
1571500000	-6.88114374744769	105.208751760185	-4.34040207514222	-163.548219552149	-4.33197278674524	-163.540642691427	-6.37818481898182	110.41791985858	
1572000000	-6.85645166064518	104.975328639439	-4.3414704795678	-163.557627860251	-4.34997060964383	-163.542327370269	-6.37523119128299	110.463851541354	
1572500000	-6.84833676220035	104.684784477887	-4.34921395849867	-163.619744789628	-4.34368272452226	-163.596382469259	-6.36925035158472	110.428933511525	
1573000000	-6.82815031774256	104.411335047534	-4.3620414095669	-163.611435766256	-4.35826486509476	-163.624612068713	-6.36706508623662	110.435526946308	
1573500000	-6.81788056108967	104.377889494385	-4.37203852307812	-163.646924714891	-4.36005876503996	-163.719903643059	-6.38434404245837	110.242747542088	
1574000000	-6.78590615990206	104.147045787126	-4.35955229198986	-163.702865923363	-4.36591360962794	-163.669586837893	-6.38285320527004	110.093389501787	
1574500000	-6.77183080035187	104.082560990602	-4.37597286181888	-163.735544679782	-4.36847812228774	-163.723603390333	-6.38494566245038	109.987632778361	
1575000000	-6.75395950340234	103.829503328673	-4.3700211191237	-163.740738403541	-4.37382983575944	-163.717436023288	-6.3801298502044	109.907158720981	
1575500000	-6.73081878044815	103.836914075138	-4.37631731190788	-163.79984523663	-4.37829748709102	-163.741500713311	-6.38299920445846	109.844737104551	
1576000000	-6.71645330932431	103.56196549553	-4.37673952563408	-163.829234644511	-4.38697715331404	-163.807229632902	-6.38270215664008	109.668773973901	
1576500000	-6.67990689329697	103.399817542523	-4.38735877380401	-163.859062578768	-4.39092490204817	-163.856181252922	-6.38856646629935	109.586904195514	
1577000000	-6.6585006183374	103.339038937311	-4.38712420045168	-163.827654612658	-4.39181746619757	-163.821745546105	-6.40061073146235	109.492943146838	
1577500000	-6.62614160763525	103.197322099114	-4.39134684176279	-163.881597880375	-4.41121702578518	-163.931597203543	-6.42626597675056	109.342072104328	
1578000000	-6.60373604426644	103.015975278964	-4.40707422952247	-163.845475494084	-4.39593128882345	-163.922314982121	-6.4030821953922	109.317297433373	
1578500000	-6.56123112129815	102.988093351291	-4.41295176690935	-163.93496730248	-4.4024670936718	-163.90150553103	-6.42296164238074	109.206596827719	
1579000000	-6.56107774264088	102.839217821763	-4.41616810231461	-163.967324623831	-4.41365626590584	-163.947438428449	-6.42667621933391	109.051747392407	
1579500000	-6.50587808246619	102.680567137266	-4.40844569475681	-163.899155812258	-4.40507966250437	-163.933342440713	-6.43871860622528	109.029785937031	
1580000000	-6.4642263601922	102.673820183133	-4.42214429505261	-163.885733351154	-4.42071530605939	-163.888946938129	-6.43744189203977	108.761710216454	
1580500000	-6.45416156480151	102.644966309255	-4.41958050826257	-163.895780876735	-4.4172485897542	-163.916574669999	-6.43235424748118	108.795213912542	
1581000000	-6.41575428878016	102.528802795228	-4.42813019664359	-163.951588452954	-4.43280976242916	-163.89257499421	-6.45105164905029	108.610008540813	
1581500000	-6.38588363433076	102.523441765487	-4.42841006588222	-163.9278061476	-4.43403266736782	-163.995838756216	-6.46488437690586	108.438235636768	
1582000000	-6.35288267852737	102.439527991545	-4.43567589838858	-163.92930523232	-4.431145580298	-164.012318771242	-6.47765313816798	108.431095151746	
1582500000	-6.32196572799	102.408209204033	-4.43936013750348	-163.913949160567	-4.42602393982609	-163.982659648047	-6.48307563456069	108.318763537647	
1583000000	-6.28213938345007	102.382580998393	-4.43067150047774	-163.8859262843	-4.42866576803142	-163.984271769014	-6.49106759309657	108.133117929706	
1583500000	-6.25939971391993	102.331458482621	-4.43273103798386	-163.994852834669	-4.43364573424954	-163.971072518926	-6.50021458923548	107.858641423678	
1584000000	-6.2289530873794	102.379206127863	-4.43529929754759	-163.973593959368	-4.43872498152807	-163.986724470123	-6.49146832538671	107.842640120813	
1584500000	-6.19772741917078	102.296258895748	-4.4326234871809	-163.987968208313	-4.43177308089692	-163.959796090501	-6.52775094596509	107.696670490013	
1585000000	-6.16579064957067	102.471148767879	-4.43449142653642	-164.001417977011	-4.44007846751605	-163.959819809927	-6.53721597789094	107.431427116172	
1585500000	-6.11346283287892	102.475706429525	-4.43347059958474	-163.976293768474	-4.43501237046881	-163.927437241097	-6.53104540491428	107.347061481917	
1586000000	-6.08204926286128	102.38858859622	-4.44255591386666	-163.98085292129	-4.44412130099142	-163.956526880518	-6.56027620539174	107.176336473096	
1586500000	-6.0409838277796	102.523419333594	-4.43666465703991	-163.998087901796	-4.43836875115616	-163.94171372663	-6.56300854816733	107.061427089164	
1587000000	-6.00981380287251	102.445977768255	-4.44288515744103	-163.922592246424	-4.42679670276185	-163.953652451775	-6.58356057416137	107.034588654502	
1587500000	-5.96828363255725	102.611550856978	-4.43101629709572	-163.978965490752	-4.44618515282616	-163.941902780284	-6.59107128344657	106.72775801376	
1588000000	-5.92915646969551	102.624936762361	-4.42946722134914	-163.958127014256	-4.42422735966969	-163.919182325652	-6.618059249796	106.67236099669	
1588500000	-5.8938013801549	102.650594385921	-4.42237447577445	-163.979713390055	-4.43428367194226	-163.97323425872	-6.62374986025964	106.365413356813	
1589000000	-5.85161801123469	102.757290537392	-4.43094031715673	-163.913836824561	-4.43227264177114	-163.900019200949	-6.64323561472676	106.332408112737	
1589500000	-5.81868911376847	102.933801249279	-4.42601186355829	-163.960889888635	-4.42533885336848	-163.966949939408	-6.66013621150625	106.088807406442	
1590000000	-5.76996429747051	102.882324214822	-4.42110279075445	-163.843393596966	-4.42286349780496	-163.835020227378	-6.68249366657082	105.979130596919	
1590500000	-5.72497089272552	102.997332481049	-4.41739209058421	-163.865028344467	-4.41078339297036	-163.833852603908	-6.69215088555181	105.71817685409	
1591000000	-5.70924599438087	103.012115254633	-4.41327035779235	-163.833697792603	-4.41418445717687	-163.852213568922	-6.69805645619684	105.584816941746	
1591500000	-5.66941953546361	103.132289622059	-4.41877039791511	-163.919436350135	-4.41603236828506	-163.912984412208	-6.72915608757306	105.587820497976	
1592000000	-5.61413722568641	103.351553067764	-4.42620617938559	-163.882742534651	-4.40542997665063	-163.858786635876	-6.73356823138515	105.244834377509	
1592500000	-5.58786798502088	103.477294319051	-4.40841682333119	-163.876069590928	-4.41229486755295	-163.899100364847	-6.74434724043525	105.097228322706	
1593000000	-5.55123157386517	103.626594265578	-4.40054121105414	-163.875800898524	-4.40226404038732	-163.870730729724	-6.76020590039428	104.919992385568	
1593500000	-5.5155703270191	103.734124831823	-4.40375632338293	-163.849384968851	-4.4034287488473	-163.922929785017	-6.79684909653475	104.774881654367	
1594000000	-5.47723772234511	103.865902034165	-4.40478533661167	-163.819841482314	-4.39044760885032	-163.832658390358	-6.7875186438338	104.641729146087	
1594500000	-5.43650005398679	104.058434432194	-4.39905021095304	-163.8330350459	-4.38255110570839	-163.774677371299	-6.81737478626633	104.481493549579	
1595000000	-5.39970190501825	104.102545188854	-4.3876152386695	-163.845214285046	-4.37918564597312	-163.814179977426	-6.84608957802321	104.431481179221	
1595500000	-5.36157714296649	104.343293188332	-4.36868854250971	-163.825683124423	-4.39102683560115	-163.787612901316	-6.83880921104921	104.150188658207	
1596000000	-5.33273338322057	104.480635281335	-4.367314623231	-163.8204606741	-4.36959460412914	-163.818365948059	-6.86576187945009	104.003312269483	
1596500000	-5.27768377450053	104.659984348682	-4.36694366560545	-163.74304380106	-4.37570863069792	-163.738225950751	-6.88585465517769	103.706701511072	
1597000000	-5.24391040429656	104.727892516505	-4.35589274513049	-163.743462913325	-4.36182516250999	-163.764792811849	-6.90232736735122	103.68331301935	
1597500000	-5.21136802086327	104.878447734639	-4.34978659227319	-163.736742864615	-4.34920151184619	-163.774208130879	-6.93278701888899	103.417518641156	
1598000000	-5.18968814970161	105.128602383178	-4.33951435547612	-163.784930503764	-4.33719582477746	-163.73695751419	-6.96784577240185	103.228147207708	
1598500000	-5.13595765815559	105.286509199144	-4.33639720307244	-163.781066356101	-4.33183043732706	-163.756734894752	-6.98189461072546	103.015915389257	
1599000000	-5.11272956597995	105.517688491887	-4.32794476692721	-163.747197105797	-4.32016654534889	-163.768203660191	-6.98615517511559	102.902010608615	
1599500000	-5.05931146465781	105.673913069885	-4.3222553833151	-163.766339293436	-4.30632847043265	-163.742699149841	-7.01922096333407	102.704028244285	
1600000000	-5.04249042032247	105.946765274305	-4.3111732078965	-163.791432716626	-4.30353144410633	-163.748390102711	-7.04132719502648	102.62784776711	
1600500000	-5.00433542318506	106.078862077106	-4.30498099767625	-163.743571687555	-4.29053727782913	-163.729078962039	-7.05970289942413	102.444652612473	
1601000000	-4.9796420575314	106.334139538051	-4.28872989069604	-163.729259569082	-4.29525499386782	-163.73627704162	-7.06159480686843	102.28997757817	
1601500000	-4.95536729284359	106.561777223238	-4.27767516203119	-163.738538439472	-4.28543986419482	-163.703685647166	-7.09377533985989	102.18160712129	
1602000000	-4.89330601508089	106.651985225096	-4.28217152974656	-163.776976183568	-4.27561468928029	-163.715813879056	-7.11018801098253	101.91646407862	
1602500000	-4.85813691261152	106.958923669777	-4.26572246301512	-163.766039833268	-4.27218746043547	-163.780749078095	-7.1261588268092	101.79349292171	
1603000000	-4.83341904013762	107.083073691277	-4.26545584820248	-163.736712218845	-4.24482516205958	-163.705832881853	-7.16853981456955	101.596342722099	
1603500000	-4.80471649855261	107.301050110926	-4.23580188039562	-163.74826633192	-4.22233460304298	-163.742566668793	-7.1976241064749	101.497655570837	
1604000000	-4.76611724516755	107.554724559355	-4.22583238968544	-163.724561278184	-4.22752538255899	-163.651453111231	-7.20366031776093	101.251118864628	
1604500000	-4.7463507993679	107.835086230129	-4.21462065027144	-163.761420886832	-4.22386750886501	-163.77961295633	-7.23388296283552	101.083407666584	
1605000000	-4.71558742683202	108.021324078072	-4.19973049549975	-163.73538769739	-4.2034387635469	-163.77868498203	-7.26785334260085	100.881584935392	
1605500000	-4.69940300833504	108.187205406224	-4.17990630777959	-163.800431387286	-4.1805427923861	-163.772830657099	-7.25971330530853	100.826554716812	
1606000000	-4.65324249925455	108.498803221813	-4.16918041130494	-163.77608842583	-4.17929595699792	-163.792206014097	-7.30957228394372	100.712578869455	
1606500000	-4.62358589929006	108.740109868379	-4.16646071895886	-163.740389529537	-4.16397247381765	-163.783795323334	-7.30429753119548	100.614624438807	
1607000000	-4.59008965696751	108.967662857673	-4.14413722691419	-163.817740269673	-4.13794636215539	-163.833691111746	-7.35235924876651	100.385312210675	
1607500000	-4.56827379269881	109.203805740941	-4.13406095938261	-163.805999630276	-4.13385304637011	-163.838469770208	-7.37002020606519	100.181745355071	
1608000000	-4.53648173613177	109.39315663415	-4.11520930626454	-163.836130625549	-4.12278766037191	-163.866201585932	-7.40911319503643	100.051462016499	
1608500000	-4.50734783537262	109.657234652242	-4.11771469324588	-163.811921373334	-4.10806890050421	-163.857967109405	-7.4312727915408	99.8675255125173	
1609000000	-4.48095836039708	109.909274844548	-4.10696204506761	-163.956626909254	-4.09019843702908	-163.970031291898	-7.45479012733774	99.8916839802101	
1609500000	-4.45247041851068	110.138943227065	-4.08368760595692	-163.910909454777	-4.08683491525446	-163.893117895524	-7.4735396201786	99.7382624259108	
1610000000	-4.44201732509833	110.291699420366	-4.07023938200419	-163.919374191108	-4.07044662332489	-163.904513821489	-7.49151095256797	99.6047867433425	
1610500000	-4.41998287055126	110.609745284242	-4.05253286993207	-163.98897711378	-4.05409037787711	-164.002188811587	-7.52356146048921	99.3939334303853	
1611000000	-4.39654388904519	110.814929861589	-4.03595517679143	-164.003514566761	-4.03450133428296	-164.061227978456	-7.54331166240422	99.3013594077051	
1611500000	-4.35829182202836	111.094958698701	-4.0276518806963	-164.010772713859	-4.01770810596325	-163.981582684209	-7.57239441519632	99.2734757720626	
1612000000	-4.34748692609218	111.365259357624	-3.99848276893034	-164.126909493249	-4.01071168463097	-164.064239662333	-7.60681738056937	99.0422222981431	
1612500000	-4.32133397246383	111.475090227782	-3.99209223785812	-164.152023108362	-3.9808959399748	-164.142082541744	-7.62538433218003	99.0490723129372	
1613000000	-4.28625631667829	111.780109861406	-3.97628787960863	-164.07351109275	-3.96851890578305	-164.116056273529	-7.64570153894881	98.8901160528568	
1613500000	-4.27601759949972	112.076660348039	-3.96178471392334	-164.156266760954	-3.95189801058861	-164.223232916272	-7.67081790265191	98.9441998933043	
1614000000	-4.26102766389499	112.256357448335	-3.93895947953989	-164.314580816516	-3.93791519447817	-164.244627474385	-7.68501542459485	98.7458189028925	
1614500000	-4.24298135626511	112.516383615354	-3.92916783658291	-164.337769753396	-3.92339010716709	-164.226468450658	-7.7346773177888	98.692485164993	
1615000000	-4.22723703329482	112.799243737372	-3.91817880136568	-164.342533806078	-3.9122347442585	-164.356768533713	-7.76851341403031	98.5577647612724	
1615500000	-4.21349652226066	112.980989077466	-3.89502930214205	-164.418794393408	-3.88170944874234	-164.40023742612	-7.78852998396879	98.3396718141739	
1616000000	-4.19499088662063	113.215393131093	-3.87775953121489	-164.567201087988	-3.86663940250115	-164.504963217294	-7.82498702434572	98.4677545908593	
1616500000	-4.19346424738168	113.517474541583	-3.85924695455708	-164.534932482388	-3.86095217942742	-164.586962708391	-7.83798407424626	98.2974618478692	
1617000000	-4.17728946706178	113.654260169231	-3.84520055575017	-164.547246354406	-3.84338821049858	-164.597869995792	-7.8713626577179	98.2460808730415	
1617500000	-4.16322253133957	113.910709618613	-3.82808680100835	-164.650110069007	-3.82918829138249	-164.607323092615	-7.89796948596482	98.2024229435918	
1618000000	-4.14746410517089	114.134862720259	-3.80580275565286	-164.693327584178	-3.8081460391753	-164.705673197808	-7.91754409678791	98.1453368411338	
1618500000	-4.13533963044219	114.360953558002	-3.78732760966312	-164.822354803383	-3.79201098412993	-164.822882322647	-7.95808547866456	98.0826725412905	
1619000000	-4.1360012931666	114.585427553819	-3.77202990763914	-164.908269415366	-3.7658667432962	-164.837157838224	-7.99159813992366	98.1262672367521	
1619500000	-4.12299218346171	114.881198829508	-3.75810157224492	-164.91652233653	-3.75162018428947	-164.970259753341	-8.02891988821664	98.1058033507565	
1620000000	-4.09472750676389	115.140472902041	-3.73277774264168	-165.043629117893	-3.73147739666593	-165.062657060584	-8.0392058609654	98.1104226680699	
1620500000	-4.09956485529513	115.355357104137	-3.7231784911583	-165.118019679008	-3.71380632141532	-165.122510897889	-8.08271076652277	98.0121249927542	
1621000000	-4.09794857353184	115.636948162218	-3.68884502330116	-165.31110486427	-3.67944300616372	-165.198158100477	-8.1141501503242	97.9544749045489	
1621500000	-4.10828257179814	115.669278977167	-3.68798920507579	-165.368718504618	-3.69153157483288	-165.183625314664	-8.10709620935639	97.9324102943396	
1622000000	-4.0965457296085	115.977049516813	-3.65678666695384	-165.417059812406	-3.66951593979368	-165.321378848415	-8.15696386331958	98.0580776440617	
1622500000	-4.09846091912705	116.253269140289	-3.65063690148901	-165.456463659285	-3.64870350522924	-165.476881567292	-8.17471308791409	98.0691226180098	
1623000000	-4.09132227669996	116.390306243367	-3.63870061964511	-165.516181943879	-3.63478755318407	-165.519500508892	-8.19655086539325	97.9986631012236	
1623500000	-4.09407202365635	116.667640224677	-3.62860709438267	-165.632720447125	-3.61813134049861	-165.679393901688	-8.22310926227375	98.1453373729398	
1624000000	-4.08879364986677	116.888021744321	-3.59603665786871	-165.79927561681	-3.60026250677773	-165.760283805174	-8.27119932782495	98.2008796479787	
1624500000	-4.10320403842595	117.066549731828	-3.5840041571217	-165.856568714867	-3.58400142606067	-165.888310142445	-8.29563319513906	98.2728722396425	
1625000000	-4.10510583652657	117.374223863167	-3.56672929543693	-165.944470768842	-3.56188509887985	-165.980542438176	-8.3187797453492	98.2472796913634	
1625500000	-4.09813677407643	117.51788913389	-3.54766706713859	-166.074575265492	-3.54955410724316	-166.103528984481	-8.34768605233163	98.4732994908328	
1626000000	-4.11240415762396	117.727006129097	-3.54066991902856	-166.178982398243	-3.53594240296754	-166.209165802643	-8.37251057558171	98.3405682989878	
1626500000	-4.11296630918938	117.978854155287	-3.51489398790136	-166.34725041938	-3.51063702822635	-166.358794055644	-8.3988889523247	98.4872725804741	
1627000000	-4.1342647406213	118.120341595864	-3.5054520423993	-166.455251586042	-3.51326099787578	-166.43731005119	-8.42786386164611	98.5648871059897	
1627500000	-4.14656505577941	118.213165461418	-3.48786020772014	-166.583446143827	-3.47932866203787	-166.529804043935	-8.4620596326917	98.6277726000195	
1628000000	-4.16330004486511	118.527747224267	-3.47325284885028	-166.714064544947	-3.47704808891502	-166.701798541367	-8.46863009548487	98.761052550786	
1628500000	-4.15754571898304	118.72057070543	-3.45836951282888	-166.804388099554	-3.45830699995791	-166.745540641723	-8.49459950865091	98.7304136361306	
1629000000	-4.18006171827979	118.893381537853	-3.42936959354579	-166.957710769875	-3.42701764858777	-166.96261783308	-8.51703303270174	98.9258312823554	
1629500000	-4.20104598714602	119.090361038857	-3.43255317232765	-167.09183953563	-3.43745545211638	-167.027223537656	-8.54396614500754	99.06476367508	
1630000000	-4.22502276848256	119.231565834949	-3.41694231088396	-167.160066324181	-3.40841330425843	-167.178192757344	-8.57177359304078	99.2352661497829	
1630500000	-4.22341398437277	119.526783576656	-3.39972009931817	-167.299849604565	-3.40367466592309	-167.27169526261	-8.58272974030215	99.4519948120153	
1631000000	-4.26479674940507	119.602257953211	-3.38562603989087	-167.455673179062	-3.3883807107094	-167.443598160946	-8.62574224672007	99.5524816401121	
1631500000	-4.28021458380132	119.796118956713	-3.38501533595277	-167.546029174874	-3.37603992336902	-167.548512165082	-8.65041327002924	99.6516920742446	
1632000000	-4.303777741359	120.101539096226	-3.35247862806124	-167.705754671218	-3.36154080678692	-167.683187555047	-8.65683433342158	99.8968664734296	
1632500000	-4.33477765820037	120.160595741315	-3.35448142812594	-167.842553712723	-3.34951135101004	-167.818805865785	-8.66226159104271	99.8808263005911	
1633000000	-4.35508648493607	120.384255625471	-3.33124686821195	-168.000394905874	-3.32728004287099	-167.938968440519	-8.68890585587002	100.356054872249	
1633500000	-4.3869922639155	120.496509532371	-3.33135000638236	-168.202422585959	-3.32581083682305	-168.124103830571	-8.68515126917532	100.431602799846	
1634000000	-4.42719860671578	120.601931231731	-3.30209382457334	-168.345392062685	-3.31040262000635	-168.245228499412	-8.73289831050599	100.707253870382	
1634500000	-4.46564746704923	120.930055675545	-3.29794460235067	-168.431034625835	-3.29796746215221	-168.48076087029	-8.73915778415917	100.910737034745	
1635000000	-4.46970261662216	121.014396275895	-3.28024674872412	-168.579977575925	-3.28231732071543	-168.549851997328	-8.7539364176287	101.169678372375	
1635500000	-4.51287999295024	121.077903395886	-3.26312021284154	-168.705213799135	-3.28147738018139	-168.733491888835	-8.76641694356981	101.307757417041	
1636000000	-4.55145263738717	121.110979514679	-3.26548174765241	-168.932321435131	-3.26893415844594	-168.863907751617	-8.73253269585365	101.557198066851	
1636500000	-4.59277988431471	121.380255411365	-3.25753290686771	-169.071916145821	-3.26383401237123	-169.020900547229	-8.776928369342	101.709938187634	
1637000000	-4.63758948945095	121.533873097212	-3.24570873844133	-169.217841127697	-3.24679899358416	-169.156114212462	-8.79101789779409	102.034762954163	
1637500000	-4.67581077512814	121.783983811714	-3.24539663713965	-169.265823390236	-3.22718678747387	-169.243139827115	-8.80723390673379	102.161766576648	
1638000000	-4.72599264240522	121.852232835826	-3.21934325868979	-169.46191636227	-3.22535785082913	-169.407814006113	-8.82072719247567	102.444719103663	
1638500000	-4.7709659564098	121.944564641282	-3.21557156765753	-169.650838533873	-3.21469958128147	-169.598221510593	-8.81544841889163	102.706850837248	
1639000000	-4.80018556613478	122.021121757339	-3.21768874332856	-169.851217757016	-3.21497181077851	-169.777210796071	-8.81572372935456	102.819529449928	
1639500000	-4.8512014369715	122.274997348201	-3.20762516802891	-170.035547081811	-3.21004706912015	-169.948583628127	-8.80588252278035	103.015631249845	
1640000000	-4.89707017461513	122.274110873743	-3.18863183451268	-170.109599322603	-3.1969797090975	-170.134936538822	-8.8263964401164	103.382462060605	
1640500000	-4.96297657143436	122.524785996408	-3.19175420345995	-170.239349692462	-3.19173570054288	-170.236195717388	-8.84042544765972	103.494786317363	
1641000000	-5.01765987223205	122.495828317558	-3.19355235932186	-170.411932390573	-3.18911889015251	-170.336176193168	-8.82716490899746	103.738690164329	
1641500000	-5.05342553088776	122.667119590821	-3.19436959842377	-170.563779639458	-3.19204332668647	-170.525183255166	-8.83575747101855	103.92435402821	
1642000000	-5.13144055216484	122.717191547703	-3.17359028168329	-170.719593307277	-3.18069823827674	-170.688001546643	-8.84098822457062	104.292462504383	
1642500000	-5.17482633680821	122.885656692762	-3.1626994802862	-170.902126834433	-3.17968503597595	-170.895900132811	-8.84710564742809	104.575467563897	
1643000000	-5.25227091644454	122.84120243284	-3.16966704858743	-171.030166632274	-3.17178878652316	-170.999567093107	-8.82406546787356	104.666991630878	
1643500000	-5.32043479768433	123.049942990454	-3.16904481607347	-171.208088343981	-3.16658211678898	-171.166103696605	-8.82323150646977	104.912520234746	
1644000000	-5.36596335283739	123.126789719848	-3.17558414161402	-171.303276042886	-3.16155136162094	-171.275702937563	-8.80888836004338	105.294119909564	
1644500000	-5.4307779043547	123.101863545339	-3.15410069690585	-171.501436464154	-3.15037604440877	-171.495789466711	-8.80605553693522	105.554273067912	
1645000000	-5.49431243442506	123.237526390869	-3.16099317614493	-171.670909661096	-3.1611294801323	-171.573934984394	-8.78578638525309	105.598370304442	
1645500000	-5.58139898910569	123.230430052374	-3.14591248357144	-171.834672409348	-3.15976679140161	-171.820761359552	-8.76814391418254	105.919278461839	
1646000000	-5.62788977216624	123.354702173688	-3.15322422708078	-171.986452666794	-3.14935958018652	-171.962056328261	-8.78797053927846	106.236046771889	
1646500000	-5.69627139844639	123.445278672913	-3.16055786004668	-172.12708119238	-3.1474872191236	-172.040252376847	-8.76227985421563	106.267018243442	
1647000000	-5.78588653528886	123.382161614529	-3.16002603808972	-172.265507398527	-3.15326551977913	-172.213288779135	-8.75761247286388	106.577886681105	
1647500000	-5.85500510337793	123.505936704648	-3.15464550653717	-172.471575724554	-3.14186867711667	-172.389150380615	-8.74185763255292	106.74472846898	
1648000000	-5.94288990249539	123.596166775059	-3.16599042804508	-172.585018570092	-3.14647514965279	-172.545933801813	-8.722958747945	106.842578397552	
1648500000	-6.01262563425835	123.520169417048	-3.14753619828974	-172.741025732954	-3.15453302533387	-172.671488707531	-8.72096893846565	107.107071564719	
1649000000	-6.07872314626634	123.490884904554	-3.14813720855372	-172.859993248097	-3.1460272545804	-172.804178746528	-8.71956373760784	107.33208246497	
1649500000	-6.18780120386663	123.409794044118	-3.1685718163278	-173.054243219909	-3.15623678275411	-173.018417800029	-8.70046749785713	107.507862681682	
1650000000	-6.24945524356296	123.52429602349	-3.16111819058756	-173.081282988569	-3.16299815486909	-173.137220869457	-8.69125366547865	107.719523376891	
1650500000	-6.33342791212723	123.40961868715	-3.17133151744999	-173.350668581432	-3.1657294100889	-173.2885550285	-8.68832010993601	107.803790120388	
1651000000	-6.43001818297643	123.421872900369	-3.15944538887439	-173.463892854745	-3.14999095902493	-173.364434422051	-8.64080109577542	108.008241738075	
1651500000	-6.53039700178537	123.416152400786	-3.17253955941478	-173.590968600251	-3.16885226335313	-173.569922689023	-8.62406809650495	108.023687366439	
1652000000	-6.60529952442904	123.426564023437	-3.16632796540504	-173.779548428221	-3.17384321152051	-173.705217789818	-8.6168596732005	108.178074749764	
1652500000	-6.69319897052722	123.393279573364	-3.19060656401704	-173.846571695291	-3.18027754755319	-173.863411877212	-8.60254522251359	108.35515974331	
1653000000	-6.78939836329165	123.278127544136	-3.1822011528692	-174.004577318044	-3.18639765587047	-173.939011603171	-8.5741410926508	108.629231505327	
1653500000	-6.89269934226699	123.195502657011	-3.19581476072136	-174.144979088532	-3.17603930684761	-174.063512476926	-8.54485685224794	108.602796177832	
1654000000	-6.97391498517572	123.155399189292	-3.18807868128703	-174.23755258511	-3.19842549808063	-174.276173300702	-8.51575821628817	108.824259809802	
1654500000	-7.06025529049402	122.968137907417	-3.2003412115456	-174.410130111623	-3.19487531129923	-174.36014747364	-8.51418098635838	108.868705370085	
1655000000	-7.16508112639654	122.848651082316	-3.2025294835551	-174.487951251914	-3.19958082883985	-174.467559665246	-8.49793557257325	108.925792479625	
1655500000	-7.25630412989946	122.701503081229	-3.2166026208744	-174.725532510072	-3.20713878285101	-174.575085616944	-8.45733288202512	109.093486857728	
1656000000	-7.35495102220685	122.45727295862	-3.21202925391192	-174.771569776448	-3.213017121794	-174.796283602078	-8.45964043382456	109.190372070562	
1656500000	-7.45543595585881	122.40717365117	-3.22306331221657	-174.938721937159	-3.22074054605367	-174.874261717972	-8.45233032134619	109.114833815315	
1657000000	-7.56483781838769	122.156380169854	-3.22681289342048	-175.000468146768	-3.23144114977509	-175.033519012625	-8.41798895858765	109.329460076958	
1657500000	-7.69006393204293	122.011078001688	-3.23681507298584	-175.184674902429	-3.23566508260491	-175.169376715752	-8.41411810768069	109.25227596096	
1658000000	-7.76339357472896	121.842205276192	-3.23985691237776	-175.228085675752	-3.24426763949525	-175.245524122457	-8.38010773964259	109.259575927158	
1658500000	-7.86760340080407	121.572844881403	-3.26045400130504	-175.380986159249	-3.24931009409833	-175.390644175635	-8.38534263723065	109.380367206403	
1659000000	-7.97245423519387	121.385245738411	-3.26267420768975	-175.514303416484	-3.2616512848098	-175.512206518954	-8.34224032571202	109.455395376678	
1659500000	-8.0890957295265	121.100283772485	-3.27835058960767	-175.648901821615	-3.26735550438403	-175.581073385667	-8.32626220679023	109.531380953686	
1660000000	-8.19685695674658	120.991817421363	-3.28830138002394	-175.702227599147	-3.27862726294564	-175.718255530896	-8.31930079620923	109.476583165663	
1660500000	-8.30778239228854	120.58647318412	-3.28180229145892	-175.758693032298	-3.27629237808653	-175.776936497219	-8.29732933804725	109.343030960733	
1661000000	-8.4208671887344	120.227472203394	-3.29340304127591	-175.952765132736	-3.29975470042533	-175.869685806395	-8.29256968102118	109.46036988149	
1661500000	-8.51149071423685	119.962238209674	-3.30569249372197	-175.974813940465	-3.31340284566093	-175.996552973477	-8.25443195868114	109.279762747249	
1662000000	-8.59520584171203	119.662545608956	-3.31316933503192	-176.077999557383	-3.31747719208188	-176.104780320073	-8.25231264406258	109.453809264426	
1662500000	-8.73254102099994	119.23389431462	-3.32539608389932	-176.211816572037	-3.32234108881657	-176.204031070486	-8.22380724821991	109.33459429909	
1663000000	-8.83472559402312	118.832936472553	-3.32862651658942	-176.333214865296	-3.32808810659025	-176.311461518729	-8.21750781265872	109.273392740791	
1663500000	-8.92282411284138	118.548450400869	-3.34363888468328	-176.398138974649	-3.32976095520323	-176.439724116804	-8.19082643886207	109.367544205813	
1664000000	-9.05938586621508	118.043574330011	-3.34715646151479	-176.514725275624	-3.35556047222054	-176.441903153046	-8.16704539335506	109.251907625798	
1664500000	-9.15734013947188	117.613126685547	-3.35820938426529	-176.561718473007	-3.35936595947701	-176.489981402285	-8.18119698112049	109.065229288325	
1665000000	-9.25487191693679	117.121229379168	-3.37231224913503	-176.727199784618	-3.36754992304391	-176.607971576114	-8.1496419387316	109.20222036512	
1665500000	-9.33566350533067	116.700534830834	-3.38130021848135	-176.796968031849	-3.37928444823276	-176.685026230146	-8.1256734297084	108.986105388349	
1666000000	-9.43012213479298	116.054205260289	-3.3813200681421	-176.870225329973	-3.3847596416667	-176.82952301848	-8.14688948513673	108.821951234097	
1666500000	-9.52320899554737	115.542811310408	-3.4035331596643	-176.887529936036	-3.39735538099108	-176.888897964215	-8.12357008555289	108.771156492037	
1667000000	-9.65898126377584	114.952299620771	-3.41282425759605	-177.012051420003	-3.4039795483126	-176.952272780856	-8.12484100887087	108.732046239629	
1667500000	-9.73170487013479	114.425144048798	-3.41374209256048	-177.035936899522	-3.41584018789953	-177.002127097018	-8.12279542125824	108.674613532183	
1668000000	-9.81824326022118	113.958028469185	-3.43044391403136	-177.088377927255	-3.42717496978365	-177.081311835517	-8.09817925580291	108.326419104572	
1668500000	-9.88912111425787	113.158238746324	-3.43340657727655	-177.176653615997	-3.42957196759202	-177.105771267119	-8.07309945489722	108.326511073639	
1669000000	-9.98147804624096	112.599129811741	-3.45433548283852	-177.221602329381	-3.45435793173556	-177.212770867709	-8.07351641547832	108.227982629382	
1669500000	-10.0526700723348	112.044394582173	-3.46013896685622	-177.250634606877	-3.45610459372384	-177.228376052897	-8.07240591999734	107.97343510461	
1670000000	-10.1508565611797	111.216634034635	-3.46785441821258	-177.285353553564	-3.46710727472743	-177.310921099207	-8.06567164048848	107.920787424991	
1670500000	-10.1947183439849	110.456433227251	-3.48856859576593	-177.431883575646	-3.47684664281922	-177.327352396426	-8.05419077034278	107.772634108096	
1671000000	-10.2629035115292	109.808894404936	-3.48867068698554	-177.434989277436	-3.49368361780243	-177.432325710336	-8.0412258481603	107.455618172839	
1671500000	-10.334597042003	109.127212033378	-3.50208538831652	-177.502245558927	-3.50001399106068	-177.466666383531	-8.05247346785832	107.360970995017	
1672000000	-10.4118824713109	108.319579433013	-3.50482764430168	-177.480139970111	-3.50471059904383	-177.468014126088	-8.03584407965256	107.111357743727	
1672500000	-10.4661205697982	107.453248874157	-3.52473292039483	-177.643030198078	-3.51280539498219	-177.543646509365	-8.05224895787153	107.130013595532	
1673000000	-10.5260401541526	106.648525963431	-3.52683345266569	-177.590480804909	-3.52921941413502	-177.547797614879	-8.05590092605823	106.772021784653	
1673500000	-10.5653682468418	105.841448369036	-3.53565441818414	-177.656802245811	-3.5286827503271	-177.608472136679	-8.05017081588914	106.583795555934	
1674000000	-10.5948943257396	105.201912037593	-3.54992952622777	-177.746967600385	-3.5553023888207	-177.698308898089	-8.06277866251372	106.469735644597	
1674500000	-10.6463687162288	104.275917465455	-3.55715827890724	-177.744429235137	-3.54128883042667	-177.739345481719	-8.05146566586895	106.265995638195	
1675000000	-10.6830241577253	103.497522726339	-3.56073054927787	-177.798947219125	-3.55737695114955	-177.733857683304	-8.05570429998495	106.090190370854	
1675500000	-10.693778204406	102.792579207223	-3.57277244217062	-177.750806762534	-3.56642236576426	-177.795184716251	-8.07136412296058	105.641745041451	
1676000000	-10.7495447616581	101.749173715747	-3.5752484353667	-177.803363708598	-3.58060561987259	-177.85992740177	-8.06583413058462	105.596389761656	
1676500000	-10.7597107086996	100.929317681322	-3.59434749560712	-177.852261886039	-3.59074202538882	-177.782018266438	-8.07990776586519	105.370147814662	
1677000000	-10.7480874116379	100.023202432734	-3.59750703641066	-177.857174470068	-3.58550932711085	-177.838798664198	-8.06034274596563	105.008096464756	
1677500000	-10.7612045165589	99.2945930213976	-3.60881667007833	-177.900321030451	-3.59337757131946	-177.885635686088	-8.06396311863531	104.851455058556	
1678000000	-10.7636404603294	98.5378165123477	-3.60484184389688	-177.914350850024	-3.60877072499317	-177.89612521817	-8.07756925060125	104.571579792779	
1678500000	-10.7705517713786	97.620498284162	-3.61759114487383	-177.948222487632	-3.62106113004801	-177.930012095184	-8.09451110444208	104.297171664639	
1679000000	-10.7064259843953	96.641976273369	-3.62330371163505	-177.987631610902	-3.61440979715052	-177.946474119017	-8.12457424281499	104.106980090152	
1679500000	-10.6960616373484	96.0414933558007	-3.62951793705592	-177.94344988523	-3.62032531435912	-177.938406451163	-8.10128303864973	103.857895088223	
1680000000	-10.698857507191	95.0640823207354	-3.63282621687213	-177.958412832919	-3.62422062629755	-177.951396886617	-8.11949162496818	103.633863224042	
1680500000	-10.6414832073269	94.3568425383041	-3.64378556733954	-177.97929892364	-3.63109728729175	-177.92670144221	-8.1234951526761	103.361052836074	
1681000000	-10.6164237556717	93.5187147317712	-3.6427728365898	-177.995958527053	-3.64324287993654	-178.008932428761	-8.14326113216715	103.183822292991	
1681500000	-10.5855893807036	92.7773351643621	-3.65623402872953	-178.022461921722	-3.6440960815722	-178.007913826224	-8.13735941930246	102.702144100665	
1682000000	-10.546644623316	92.1456691027657	-3.65552758785528	-178.021225716572	-3.66000529510773	-177.987810615104	-8.1787628952637	102.485832048253	
1682500000	-10.5086589205466	91.3876952626423	-3.65102735692549	-177.975002658285	-3.65539831721155	-177.950459685225	-8.17825312197188	102.379326788632	
1683000000	-10.3958525969833	90.6430051763866	-3.65897327006682	-178.030538792662	-3.65522235294904	-177.939808049611	-8.19416770465847	101.899661443286	
1683500000	-10.3924564151936	89.7497935633104	-3.66179421115844	-178.043118086954	-3.65080576111263	-178.104420211627	-8.21609083590663	101.648345684596	
1684000000	-10.2977664916041	89.3756096488028	-3.65588678013812	-178.012676166909	-3.66025011346447	-177.948133930675	-8.21158137892653	101.312074287749	
1684500000	-10.2341609301275	88.8594020578067	-3.67035122555269	-178.022601241257	-3.66597067622018	-177.94099824638	-8.22636647917522	100.938094392981	
1685000000	-10.1762983066111	87.8485706786684	-3.66484047601134	-178.018153809456	-3.66815195265399	-178.005284396725	-8.26133714198513	100.80056064563	
1685500000	-10.0880351308822	87.6331976170199	-3.66947110030792	-177.972617700765	-3.66180112372419	-177.951390921815	-8.27730695047714	100.35340552425	
1686000000	-10.0075390132594	86.9572617909064	-3.66439434682432	-178.021393494374	-3.6665451416319	-177.979922530156	-8.28413347935561	100.155512646349	
1686500000	-9.91858725209503	86.4358537278855	-3.66007713982708	-178.02289513157	-3.67080594202515	-177.927491930189	-8.30719360143407	99.852048844208	
1687000000	-9.85776401432522	85.8674205681524	-3.66737047435811	-177.989159157486	-3.67541346715985	-178.002487564242	-8.32960701554899	99.5933812939646	
1687500000	-9.72785352953938	85.3019796708606	-3.67482822640279	-177.935868857319	-3.65876055947854	-177.945686726717	-8.3618813293647	99.3286001934095	
1688000000	-9.65811724334841	85.1368426115483	-3.66605657133033	-177.973432713954	-3.67303982202	-177.910823474887	-8.35162286428755	98.9461666457181	
1688500000	-9.54936216256794	84.530923718127	-3.67178684859929	-178.013341333811	-3.66878468002739	-177.881909853264	-8.38330899056621	98.5314722248005	
1689000000	-9.46558499752471	84.126852037393	-3.67341265290153	-177.997698941642	-3.65640084344333	-177.95328764922	-8.39873499221963	98.2827531369213	
1689500000	-9.37609537856436	83.7076715928968	-3.66658899722569	-177.869632168619	-3.64682821994008	-177.957725918428	-8.40624127726435	98.0250797417196	
1690000000	-9.28719843430752	83.3941021938197	-3.66144893032042	-177.937473347644	-3.66938613102861	-177.895135174867	-8.4391572850127	97.6788204830862	
1690500000	-9.19481744273965	83.1156889323344	-3.6546953793351	-177.940859989587	-3.66018951665103	-177.891978026667	-8.46509652370182	97.3640103698083	
1691000000	-9.06923125838372	82.8446583353738	-3.66106345246485	-177.926615903046	-3.65628010424622	-177.854825825667	-8.48584687480921	97.0256944225898	
1691500000	-8.97286134137632	82.5340600115777	-3.6483001882012	-177.90994997901	-3.65234652166615	-177.908232605595	-8.51635576956868	96.6825540183798	
1692000000	-8.87023321097668	82.1224374940322	-3.64118692239212	-177.894800302645	-3.63111011900552	-177.89825568236	-8.5281296241507	96.3148983250054	
1692500000	-8.77118868299158	82.110751384065	-3.6379577395363	-177.8473096715	-3.65468788294359	-177.836449846954	-8.56429246412757	96.135936699659	
1693000000	-8.65149670720056	81.7770119967788	-3.63070947749703	-177.918408608661	-3.633034501611	-177.779843498797	-8.60658151019585	95.8136545859723	
1693500000	-8.57561054953737	81.6704063195203	-3.63639183682736	-177.767913256939	-3.61882751986227	-177.809997043915	-8.59975008137365	95.397406210863	
1694000000	-8.45212648415331	81.4960091469905	-3.62535855396005	-177.799746595793	-3.62445752709171	-177.823004573642	-8.64888100717016	95.0402707004612	
1694500000	-8.35190256313406	81.459919995439	-3.60519060573055	-177.766111247195	-3.61800970177675	-177.868993053672	-8.68191229328131	94.8939464956861	
1695000000	-8.2433237036028	81.3784088715802	-3.60958706944702	-177.773935848081	-3.60469924961328	-177.813740817294	-8.70417372289705	94.369430051527	
1695500000	-8.11592748103093	81.1789307993318	-3.60151813672836	-177.790970499732	-3.60311694673425	-177.762143724692	-8.72983070238721	94.1652020773389	
1696000000	-8.02707327324429	81.0795663506183	-3.59428496555084	-177.806657507068	-3.5856387017662	-177.805120645762	-8.77639491863195	93.836386047	
1696500000	-7.91745772456236	80.945018440188	-3.58862055714145	-177.82169641527	-3.57057573934679	-177.729997718162	-8.79913276737339	93.500021834792	
1697000000	-7.8247424351692	80.9128160230406	-3.58020348181573	-177.722032477675	-3.57452290549885	-177.767335499912	-8.81291759302108	93.2142630358734	
1697500000	-7.7331727895048	81.0094538235489	-3.56536347321305	-177.847336758634	-3.57556123875529	-177.83637696511	-8.8697722245877	92.9219434528308	
1698000000	-7.6319784634795	81.0105585896953	-3.55702888410675	-177.779773496454	-3.56787275880687	-177.818500781256	-8.87863243845026	92.8033143734855	
1698500000	-7.50918791637972	81.0476026149463	-3.54199293338004	-177.75239190298	-3.54187932827325	-177.765918438684	-8.91577505986464	92.3531389423905	
1699000000	-7.4139690788439	81.0355867325464	-3.53648746281571	-177.777670337776	-3.53621631421828	-177.669693312689	-8.950984432525	92.0220289404912	
1699500000	-7.29837515616639	81.0250898286926	-3.52482130321028	-177.739910836559	-3.51896256599446	-177.760154610993	-8.99422046377191	91.7837283522654	
1700000000	-7.16762338015701	81.1459167076696	-3.51285440542157	-177.735299369237	-3.5086615819632	-177.752340904809	-9.03307655392464	91.3776787295609	
1700500000	-7.09113577254302	81.1853395192171	-3.49636038512869	-177.772731393717	-3.50471356048437	-177.708475066317	-9.05631577306272	90.9694432774867	
1701000000	-6.99060387813325	81.3102378819137	-3.48667805606631	-177.789072667284	-3.48998428694922	-177.76210255095	-9.09288152355119	90.9319876722976	
1701500000	-6.87604065442842	81.3845350246214	-3.47628598590038	-177.776699813428	-3.46059526806414	-177.751045228959	-9.14369275862376	90.4894476961466	
1702000000	-6.79793498967633	81.5939235664914	-3.47453334923472	-177.783686989216	-3.46592691266667	-177.715885617724	-9.16019855743435	90.3736496645428	
1702500000	-6.67608809279463	81.638935268576	-3.44698543444409	-177.76493167108	-3.44552977024345	-177.734967852518	-9.21268599068475	89.9473337488127	
1703000000	-6.61175154947197	81.8793159638956	-3.43072560147727	-177.797454016563	-3.42950978547207	-177.726556525423	-9.23034804908079	89.8084350418989	
1703500000	-6.49647983388523	81.8691668320398	-3.41639070702886	-177.801648593302	-3.42419634522033	-177.796683407852	-9.27197151551331	89.4056581259751	
1704000000	-6.40404075209028	82.0591218297005	-3.39447699697771	-177.831252892635	-3.37615226152686	-177.827302284894	-9.31965566037405	89.2910974659047	
1704500000	-6.29615704716972	82.2412208332142	-3.39321444300173	-177.834060442703	-3.38442479794098	-177.842841901053	-9.3554035563525	89.0715914687507	
1705000000	-6.21593414954457	82.3909413797	-3.36046155291552	-177.808991386088	-3.36757754887773	-177.795159514588	-9.39980974473118	88.8170576106887	
1705500000	-6.12968496492041	82.7295924938953	-3.3620543808993	-177.959822936146	-3.35511750665155	-177.928284622686	-9.43700373790091	88.6493059845986	
1706000000	-5.99050003609848	82.8912016741979	-3.32921056085414	-177.855418432059	-3.32875300691461	-177.874689203076	-9.5045408409889	88.1258256462253	
1706500000	-5.91883424576762	83.0493799062886	-3.3135820278629	-177.871018921199	-3.30751834935232	-177.916463857931	-9.55575440051243	87.834459095398	
1707000000	-5.85184018132349	83.3010925674432	-3.30408042434043	-177.995259171333	-3.3016888578354	-177.967491141126	-9.5758742129371	87.850078941592	
1707500000	-5.75836931363271	83.6055809259916	-3.28226671342784	-178.012955194851	-3.26523221345234	-177.923480033898	-9.6192554788628	87.6373343025031	
1708000000	-5.66131693406635	83.687966785575	-3.26869167330485	-178.075435727012	-3.25157455806434	-178.043719514431	-9.69257004491301	87.3451572154818	
1708500000	-5.56508084136101	83.8973970276848	-3.24371813172015	-178.103115395773	-3.23086541532499	-178.025144924352	-9.72955796236103	87.2436370488208	
1709000000	-5.50073581125839	84.2605121991276	-3.22227797759244	-178.132504709653	-3.22044105401898	-178.063791145517	-9.77594793883757	87.0369106719312	
1709500000	-5.41464596761769	84.4617145505058	-3.21055281111615	-178.117428324961	-3.2172920600805	-178.096845213706	-9.78192262224756	86.8544647591718	
1710000000	-5.31257960395792	84.8861977639575	-3.19225937331502	-178.211834919219	-3.18114600736715	-178.200501526044	-9.87252293565572	86.755351673801	
1710500000	-5.24847597550985	85.0503664582882	-3.16106912463888	-178.309893197438	-3.15848569132341	-178.263892397921	-9.92834128597765	86.5041149843871	
1711000000	-5.17138193545754	85.2057554524629	-3.1511187221385	-178.311808975915	-3.13433548645025	-178.308881036991	-9.97820382067925	86.4769334076885	
1711500000	-5.08021606294183	85.5966960742517	-3.13142848341158	-178.327132949645	-3.12223810086151	-178.353667135474	-9.99992188761965	86.2519443860546	
1712000000	-4.9845989735239	85.8083765575943	-3.10172853499433	-178.413631631021	-3.09224020664968	-178.371697960303	-10.0717470400353	86.165261016243	
1712500000	-4.90173999680354	86.0569175722081	-3.07591694279633	-178.422053281767	-3.06965655024579	-178.424484806216	-10.1278095600873	86.1333652911842	
1713000000	-4.84035123963443	86.3514893897374	-3.06475403749284	-178.619225877642	-3.06872966973843	-178.589074443077	-10.1822875142099	85.8664008567249	
1713500000	-4.75673764236483	86.7766234853935	-3.04109583864542	-178.573474294357	-3.03968625772931	-178.57030252975	-10.2161322961032	85.7335115266491	
1714000000	-4.69068516351989	87.008628634151	-3.01454122618977	-178.755003063769	-3.02045461641336	-178.607372519594	-10.313436031584	85.6791575456208	
1714500000	-4.60605700486295	87.4418228959491	-2.98863096449611	-178.774830017199	-3.00107666279859	-178.759504315505	-10.3188055804166	85.6194956243634	
1715000000	-4.54628904644142	87.609899819574	-2.96470560536775	-178.822089764965	-2.96982826900774	-178.841583699834	-10.4204493014674	85.688392176336	
1715500000	-4.47178442325184	87.878853256546	-2.93869904526977	-178.876634951873	-2.94922080248038	-178.88402129806	-10.4657853616699	85.723348917218	
1716000000	-4.3979694587849	88.0945048596492	-2.92612154348334	-179.059741098401	-2.91675085196774	-179.036649283657	-10.5334711762848	85.7202608913144	
1716500000	-4.33700876811257	88.4693622857818	-2.89864606049196	-179.069044399857	-2.90878235692463	-179.042515467547	-10.5924558305332	85.6051717250859	
1717000000	-4.25461697361401	88.81319578427	-2.882113700918	-179.194760372024	-2.88064342012055	-179.189988695151	-10.6364382123317	85.9059569632785	
1717500000	-4.18657589222711	89.1081791308495	-2.86225961354664	-179.296785761986	-2.8545600749805	-179.217493511108	-10.6854597415516	86.0525527415492	
1718000000	-4.13735482958859	89.4796389586504	-2.83998842142332	-179.418768982751	-2.83333026218956	-179.386164664564	-10.7654925152351	85.9283357919564	
1718500000	-4.08247382587814	89.9382480287954	-2.82475740752242	-179.506565045737	-2.82344311196346	-179.536196653266	-10.8146038063362	85.9344870530795	
1719000000	-4.02351250994456	90.040459724774	-2.80558885714877	-179.652523822383	-2.79516645200661	-179.599427465208	-10.8878701083213	86.1027170949014	
1719500000	-3.9729767007646	90.4150281329363	-2.77009165728603	-179.64532947743	-2.77670240456353	-179.643636869822	-10.9694169134678	86.114240761568	
1720000000	-3.91773523560279	90.7761480123193	-2.75372610061537	-179.902348951108	-2.74408973168648	-179.831891345836	-10.9788246775304	86.266053662463	
1720500000	-3.85914350178318	91.0199144747416	-2.72790660224113	-179.982970291417	-2.72762399043736	-179.976342761129	-11.0777871257367	86.3386617063945	
1721000000	-3.80377991788954	91.3541580207604	-2.71453905550154	179.826129381131	-2.71330029671519	179.920906250506	-11.1142557690027	86.5669314972041	
1721500000	-3.75876477562492	91.5405227990333	-2.68438211870749	179.770632553216	-2.68449928855993	179.766335415102	-11.1531914933923	87.0335486894617	
1722000000	-3.69532673381615	92.1083264592056	-2.67148606862368	179.624289721283	-2.65714819374401	179.677612876502	-11.2425933067441	87.1383281294787	
1722500000	-3.63195288262521	92.3081351898943	-2.63469592104127	179.584957742255	-2.62943019520142	179.587561391546	-11.2837643190714	87.3183741365633	
1723000000	-3.6015950921771	92.6355557332598	-2.61911934277692	179.343563073468	-2.61725497861549	179.401581172436	-11.3796726160478	87.5037220398824	
1723500000	-3.52928924771444	92.9290735786801	-2.5912122706242	179.151186901477	-2.58630083938219	179.238952974841	-11.4066095874346	87.850750721691	
1724000000	-3.50977509290133	93.4756663726087	-2.58475815183392	179.123998841772	-2.58535458931655	179.1051342058	-11.477034124539	88.1048635636871	
1724500000	-3.46742015781951	93.7451336847036	-2.55627525448457	178.945476402841	-2.54907161268914	178.947824123973	-11.5087879018506	88.5631327301112	
1725000000	-3.42715429969931	93.9427702718401	-2.53684105379188	178.744752179278	-2.52773869983281	178.686224987606	-11.5702715156206	88.893383611798	
1725500000	-3.38963077148784	94.4735466049197	-2.52776482152142	178.574301506221	-2.51861308210277	178.626186351433	-11.642151733425	89.0784785986342	
1726000000	-3.35222218258413	94.6437744623617	-2.4961209320369	178.488114913396	-2.49912016541633	178.472348985232	-11.6826010095433	89.8488950326935	
1726500000	-3.31112172545755	94.9439681299059	-2.47925539236118	178.267925945578	-2.47495938462648	178.31249747608	-11.7126202247322	90.0461943375048	
1727000000	-3.26720398263556	95.4112648460292	-2.45909333944926	178.10307124436	-2.45344709104646	178.172777333138	-11.7817024381841	90.5276811896246	
1727500000	-3.24025983203167	95.7274074014453	-2.44396766184779	178.008875247185	-2.44630914544134	178.002407750586	-11.8366050884554	90.9735602198387	
1728000000	-3.21111795281037	95.9263085870821	-2.43367878448784	177.753114353632	-2.41075782366181	177.668073760859	-11.8741920743949	91.6389552610384	
1728500000	-3.18323327321559	96.3547175076778	-2.39945764090124	177.597516328237	-2.40112158074691	177.594451639892	-11.9171462860153	92.0276956704926	
1729000000	-3.16934304435057	96.6996627660167	-2.3949249048706	177.441417877684	-2.40271368266987	177.512963434369	-11.9205377627686	92.4691356384554	
1729500000	-3.14549867502091	96.9275312499566	-2.36517057980785	177.167037335033	-2.36929016857931	177.214369374744	-11.9832375278915	93.1210808760396	
1730000000	-3.11326158593188	97.2818358758041	-2.3453583445661	177.056446543911	-2.35623686672379	177.042296591065	-12.0698460021376	93.61196690256	
1730500000	-3.09600973180411	97.6674993564512	-2.34877730289786	176.744796864325	-2.34676850454275	176.830877178929	-12.0405213647679	94.2429788686791	
1731000000	-3.06636187346343	97.9252091406704	-2.31099648693552	176.634443171966	-2.32276722515057	176.689678199361	-12.053763211143	94.7805482515345	
1731500000	-3.05859502879151	98.348394448634	-2.31762056705082	176.435714202631	-2.31316243887878	176.504764692876	-12.0645044725731	95.3930684075796	
1732000000	-3.03656507687483	98.7014612348166	-2.29659156854904	176.282417201531	-2.29414378402216	176.345951151544	-12.0970955964154	95.8592480942453	
1732500000	-3.04514213087929	99.056665269618	-2.28726068464181	175.987639127763	-2.29157854733914	176.062454059891	-12.0649438872161	96.6693395971235	
1733000000	-3.02526434254144	99.2935586318806	-2.26974358473148	175.811274223233	-2.25747446136966	175.875075302107	-12.113497651508	97.2196786311759	
1733500000	-3.01018584521183	99.7596386934262	-2.25904663112831	175.699173787182	-2.24896129412756	175.615581029233	-12.1341724362932	97.7453529194593	
1734000000	-3.01253456455619	99.9810422709435	-2.235678640618	175.375660185736	-2.23998361042944	175.453734436661	-12.129944918332	98.6509843200493	
1734500000	-3.01712311821167	100.383465917163	-2.2389482614322	175.223987566076	-2.24576951673235	175.183738825858	-12.0913343593314	99.275963101342	
1735000000	-3.00112022824075	100.651504037861	-2.20722741687607	174.96940883949	-2.2118884545188	175.042998069428	-12.0864870879229	99.7896036318029	
1735500000	-3.00593754146154	100.951022241088	-2.21802313481419	174.744007061111	-2.21249229156825	174.795737054154	-12.0347110623425	100.655562805298	
1736000000	-3.01955848546596	101.364681158604	-2.20466261841767	174.54224997833	-2.20866228054312	174.670033159583	-12.0947661218227	101.052978742916	
1736500000	-3.02611013496975	101.680353137199	-2.20001098557269	174.304052159924	-2.20302271718182	174.33386069764	-12.0372006790685	101.788647319801	
1737000000	-2.99355724983845	102.086554643337	-2.17762518596922	174.098850025004	-2.1792894951053	174.167597769211	-12.0267762132099	102.50734657984	
1737500000	-3.04845378834656	102.482942950431	-2.17379712493736	173.911693646655	-2.18659475208669	173.977478818585	-11.9708256437385	102.884773984288	
1738000000	-3.02944703128166	102.873021925584	-2.17445328820314	173.771487892127	-2.16684602739745	173.834923758451	-11.9733532148255	103.56871059116	
1738500000	-3.04429467542535	103.084910410471	-2.16101752186304	173.545835192191	-2.16292953760939	173.533927909235	-11.9407068392228	103.968470266039	
1739000000	-3.06606623205943	103.508825243575	-2.14718488482838	173.292953074361	-2.15476160652285	173.343679345559	-11.8928779514433	104.616655078825	
1739500000	-3.09181325520806	103.800488479687	-2.15183331454482	173.022674261315	-2.14571880296985	173.039927779862	-11.8193650756703	105.465593323275	
1740000000	-3.09886458989107	104.306354709904	-2.14283878779927	172.845608674191	-2.14568350368233	172.921310124341	-11.817096164414	105.909878035216	
1740500000	-3.09560488524305	104.579675258152	-2.14198145913715	172.676394854446	-2.13879006649453	172.666571076631	-11.7673781293089	106.51387730299	
1741000000	-3.14506460571836	104.862774766231	-2.14153977350442	172.401123136345	-2.13569903368683	172.449392901344	-11.7012487475327	106.811160658292	
1741500000	-3.16276869229398	105.189084045652	-2.12867213995551	172.216334537279	-2.13468744500317	172.230420318235	-11.6504856126013	107.44362520597	
1742000000	-3.20802677024487	105.57674704235	-2.13879739281504	172.058632622037	-2.1285152444387	172.04029247049	-11.595783344897	108.001421568859	
1742500000	-3.21343128366746	105.993693793455	-2.1288358731811	171.7832767006	-2.13130608955201	171.800984717493	-11.5445563971659	108.378771485763	
1743000000	-3.23632539989268	106.397769702113	-2.12624460917667	171.634522020181	-2.12494285451996	171.557896121196	-11.5024870674113	108.785353670917	
1743500000	-3.28378739377845	106.711043117674	-2.12161442250807	171.346974817156	-2.12309627939838	171.357865289868	-11.4321580550736	109.132880837135	
1744000000	-3.32522689472368	107.071450374769	-2.13366893893594	171.198046362863	-2.12649969300135	171.181906030827	-11.3934911819734	109.554654605306	
1744500000	-3.35139104714577	107.471892790185	-2.13087129396482	171.043147423459	-2.12624527613003	171.016199796036	-11.3435962250613	109.817904367367	
1745000000	-3.39791827373164	107.771555405495	-2.13419654091569	170.591911446754	-2.11726834757891	170.688839258397	-11.1939794245519	110.407693860305	
1745500000	-3.44121936725564	108.290174062889	-2.12581974300604	170.535214850206	-2.12700674413476	170.6141120443	-11.2038791360107	110.509470214689	
1746000000	-3.48972098087562	108.640443839492	-2.14413159587846	170.332368041382	-2.13354088401566	170.302492954829	-11.1115650280157	110.838765763085	
1746500000	-3.52596446653278	108.941501318704	-2.13246752844503	170.180256504772	-2.14469018920021	170.142394709671	-11.0720780722396	111.171754101997	
1747000000	-3.57689295646368	109.338617987441	-2.14574164003743	169.917573781358	-2.13804074382092	170.045954223101	-10.9900115606174	111.322649267405	
1747500000	-3.62707903586398	109.751308213602	-2.15654460690821	169.702889888387	-2.1445515343997	169.687646221591	-10.930752731035	111.726562646594	
1748000000	-3.680840585364	110.17341577291	-2.15031113427538	169.513467506219	-2.14838288764868	169.598581385542	-10.860309892056	111.673159438035	
1748500000	-3.74711863097353	110.435766888762	-2.15420734599614	169.281969365996	-2.15494353583043	169.313188561442	-10.7998774263355	111.890066972669	
1749000000	-3.79756805659712	110.981202112953	-2.16580137123296	169.163736948134	-2.1622685896383	169.116083364073	-10.7564841906746	112.099899628774	
1749500000	-3.85142140256276	111.205919485135	-2.16412385921245	168.940836303067	-2.16102702710913	168.870020174252	-10.6887820898547	112.34189283712	
1750000000	-3.91518932488278	111.772827153579	-2.16942463060795	168.710159204944	-2.17156014217562	168.715441695596	-10.6207948560092	112.442232557738	
1750500000	-3.98694954617198	112.077152853308	-2.18105457945191	168.574663490352	-2.17351911009729	168.611036322129	-10.563033496321	112.471305309687	
1751000000	-4.07050882009394	112.583384735718	-2.19579779206626	168.397830848744	-2.18255672180819	168.364527192724	-10.4499325683034	112.502031656798	
1751500000	-4.11176591323139	112.883120136696	-2.19917557350379	168.201681802143	-2.1945092755133	168.210050420321	-10.4288022594474	112.446465703834	
1752000000	-4.183425584372	113.367913267623	-2.21080814683975	168.060234388112	-2.20678434910856	168.044159719846	-10.3505205845838	112.506451134201	
1752500000	-4.25203528350441	113.738453448137	-2.22167514906252	167.876546877863	-2.20755640455887	167.875972681474	-10.3386160837029	112.684370179265	
1753000000	-4.33602592189406	114.300940965833	-2.21452140580219	167.758182340978	-2.22018851582251	167.707875866242	-10.2845521262379	112.317741177958	
1753500000	-4.4187719146007	114.501876474791	-2.23403715370685	167.515737353876	-2.23414901749974	167.496602851928	-10.20255080798	112.726759407091	
1754000000	-4.50068512102367	114.963174576814	-2.25205510511614	167.362793362531	-2.24676426405635	167.444849340063	-10.1556395436569	112.343538833937	
1754500000	-4.57525770504908	115.543201633423	-2.26238431006778	167.27594875417	-2.26434836416597	167.222905256613	-10.110636313354	112.145436221956	
1755000000	-4.67071083041105	115.815272027491	-2.26607547071833	167.049234327467	-2.27331094494832	167.100466338635	-10.0307525047562	112.178111545699	
1755500000	-4.75372483495399	116.341877337165	-2.27476883710414	166.897619747172	-2.27562244543775	166.899288084028	-10.0159782705323	112.245332958615	
1756000000	-4.82313085309256	116.731989019291	-2.28828461271069	166.727238505455	-2.28215395506895	166.72835661901	-9.97125545509281	112.199526447735	
1756500000	-4.94150261388016	117.136294656295	-2.29249302271905	166.560944984655	-2.29252462557631	166.577042660745	-9.92411046033248	112.08292852585	
1757000000	-5.02177534352572	117.669494497855	-2.3150927035601	166.47123246843	-2.30764691368325	166.440318996368	-9.89772901310538	111.76534299411	
1757500000	-5.12595804528083	117.987318988951	-2.32673783402096	166.300299933405	-2.32427502399162	166.316717089131	-9.83610320096983	111.573249864489	
1758000000	-5.22038122660987	118.420206687885	-2.3408693378418	166.231408149234	-2.33561432140826	166.213635119302	-9.81762040187752	111.546308751749	
1758500000	-5.3082116692263	118.875079600146	-2.34689415001718	166.034534903451	-2.35238743310797	165.991712493897	-9.78764019689682	111.263519463005	
1759000000	-5.4185124926367	119.321425723135	-2.35550956238545	165.904120067168	-2.35842776229109	165.912021871115	-9.74916629953733	111.199215069203	
1759500000	-5.51260402050341	119.613932296933	-2.38317811124327	165.820779658161	-2.37216634867183	165.740316949481	-9.7197915265987	110.942276303154	
1760000000	-5.63886586633211	120.186043385526	-2.39442488548234	165.718324287095	-2.38810474321305	165.68478519359	-9.6958784033935	110.68985037411	
1760500000	-5.7347434614994	120.537896411259	-2.39591009874919	165.559415561234	-2.40113093958527	165.569940961487	-9.63990461502924	110.300430101252	
1761000000	-5.85869614732915	121.149686612201	-2.4119711377824	165.49929731416	-2.40458341007021	165.430442276836	-9.64943458018608	110.164980404373	
1761500000	-5.96809440126261	121.606044431459	-2.42639820371377	165.32368826303	-2.43379001195709	165.328217298731	-9.6210520817019	109.918228269308	
1762000000	-6.09614311816577	121.933886555016	-2.44976194822067	165.215894682509	-2.44526573072478	165.209185337724	-9.59378257844224	109.519983462274	
1762500000	-6.18372090420025	122.352707165815	-2.45214712394301	165.143896667687	-2.45514841780506	165.163052273031	-9.58390243135578	109.276299018957	
1763000000	-6.33402133423183	122.894543139467	-2.46137874441087	164.989208504316	-2.46683892329526	164.979870074194	-9.53077001214221	108.980398170786	
1763500000	-6.46391494334507	123.369172427562	-2.48118265413053	164.950646980835	-2.48047468357665	164.94568487195	-9.5352678758071	108.701441280807	
1764000000	-6.59412500924392	123.553972562545	-2.49150185890334	164.836134066623	-2.49129758100791	164.814041236977	-9.49645948535314	108.476601930121	
1764500000	-6.71917641499374	124.134498181315	-2.50899116362749	164.766769311329	-2.50283386240343	164.748408445132	-9.47399208248706	108.09822718806	
1765000000	-6.83648822181646	124.633701756781	-2.52599617336302	164.624555786795	-2.51386887321869	164.597834905251	-9.49579629943546	107.792171869484	
1765500000	-6.97733737350188	124.847294279258	-2.54310881572903	164.574731681049	-2.53912573740938	164.563501284164	-9.48562584767141	107.376985938868	
1766000000	-7.1123285227295	125.423672215927	-2.55019211849386	164.515724569337	-2.54367276915838	164.548410903981	-9.47380731699656	107.036470907826	
1766500000	-7.26472421561167	125.756684946871	-2.56916292459625	164.442280527334	-2.56282657892944	164.397336733061	-9.45885089761953	106.833828842776	
1767000000	-7.40376831609176	126.048215271211	-2.57354818897537	164.338803913118	-2.57574024968808	164.370493231433	-9.48074486039604	106.236076434489	
1767500000	-7.5692827835121	126.505331602409	-2.59277828336754	164.334568167102	-2.59223348569333	164.335101772972	-9.46744973812554	105.984526772263	
1768000000	-7.72358894126454	127.061075204923	-2.59673258999534	164.18365692494	-2.60559901633209	164.225020948364	-9.44963219187375	105.704446041369	
1768500000	-7.86652532511887	127.330348064891	-2.60963621938549	164.125579558336	-2.61353036989878	164.208382307858	-9.45511055145106	105.53915503515	
1769000000	-8.02838389506783	127.87708762637	-2.62128308184073	164.159088159046	-2.6322537754049	164.114427329165	-9.46179825949059	104.924149125822	
1769500000	-8.1821842526188	128.17335791249	-2.64089322967124	163.998031579471	-2.64753289350788	164.090511856675	-9.46142228369539	104.541097340901	
1770000000	-8.35003579466169	128.65896209129	-2.65873607414331	163.997150762384	-2.648880698945	163.99974018256	-9.47494009672359	104.073558749525	
1770500000	-8.52148212396403	128.930296716292	-2.67723356353713	163.94987651893	-2.67423591889216	163.97115289072	-9.50175410158171	103.839206027575	
1771000000	-8.67939359359391	129.436812609457	-2.67925983189695	163.860161779359	-2.67722439248144	163.899653056276	-9.47594537823218	103.388842939442	
1771500000	-8.87967251202983	129.744461873552	-2.69645708431222	163.888048279456	-2.6919612455658	163.881300743382	-9.50041058916985	102.895769875966	
1772000000	-9.0425988430943	129.876240917402	-2.70413526882805	163.807026654493	-2.70754390367907	163.910137162245	-9.52444908160347	102.42013140707	
1772500000	-9.27453134418663	130.243170168543	-2.72254950927933	163.700068227534	-2.71604116751109	163.797492411605	-9.50376008993765	102.030528679747	
1773000000	-9.45487656686234	130.659771751817	-2.71893888581606	163.736421843419	-2.71747895922288	163.797349524069	-9.54818944118615	101.773721993592	
1773500000	-9.60820066367808	130.543541606698	-2.74702660289628	163.739870606502	-2.73519584172761	163.764038589085	-9.58049393762061	101.217087200607	
1774000000	-9.81537366164103	131.28146010343	-2.76068778665979	163.725406284799	-2.74745985415077	163.694271874954	-9.6079504361397	100.818072167266	
1774500000	-10.0243798969124	131.596342003766	-2.75941136379847	163.631830708392	-2.76597233837016	163.653429107838	-9.60329217451717	100.389810528055	
1775000000	-10.2390697537091	131.886429575536	-2.77398870027731	163.591669909642	-2.76519178170639	163.552536014521	-9.61705551220033	99.7958978053924	
1775500000	-10.4625641967255	132.064372968188	-2.78902671982412	163.598903190192	-2.78558790407854	163.577240599535	-9.65418723778224	99.3262997640298	
1776000000	-10.6813553887586	132.368761843209	-2.79835621077167	163.607804553109	-2.80178550048066	163.56395666945	-9.65950134379555	98.8292009100418	
1776500000	-10.8922911549572	132.219508655606	-2.79483571864841	163.506186520878	-2.80441515465933	163.589943023427	-9.70702260304303	98.4868321181872	
1777000000	-11.106414136259	132.408335339319	-2.81991581116751	163.522373461944	-2.82222233639728	163.503275818515	-9.70453864267464	97.9575155120943	
1777500000	-11.3205448163947	132.697242736557	-2.82619232892133	163.527564603696	-2.82925598502582	163.43004248043	-9.74208240282498	97.5437665316027	
1778000000	-11.5525725697602	132.646859154427	-2.83183929976077	163.4940493445	-2.83200244804178	163.517617015061	-9.78940322024179	96.9705508366387	
1778500000	-11.83261712021	132.763536701221	-2.83963581594986	163.47126747102	-2.8361588022539	163.439524350499	-9.80778093517652	96.5730051967408	
1779000000	-12.1119527216295	132.600059599384	-2.85344701789005	163.491661034816	-2.8362456474282	163.406838181457	-9.84072769708348	96.2710650652949	
1779500000	-12.3894906526919	132.689616763174	-2.85866125887664	163.500391994746	-2.85132427164244	163.468565702363	-9.8861641003714	96.0070524168013	
1780000000	-12.6078794737464	132.66063696077	-2.86693649647666	163.404030871246	-2.86714692198977	163.476745536997	-9.92381016226631	95.0920338260414	
1780500000	-12.9166321860199	132.647190112575	-2.86240547943641	163.4439027728	-2.87149783731822	163.432063188395	-9.9195527018223	94.7916935719513	
1781000000	-13.1598895748891	132.494796781814	-2.8787848514096	163.415637135733	-2.8857112882463	163.403999950046	-9.99883266696968	94.2011808054555	
1781500000	-13.4831579541536	132.173700461272	-2.88727587258226	163.425318085864	-2.88558609325773	163.445877057151	-10.0083699858901	93.7704683110822	
1782000000	-13.7443813331937	132.062676577976	-2.89279612805588	163.451624393481	-2.8944427933862	163.39042804719	-10.063075466997	93.2719832178594	
1782500000	-14.0767415150957	131.847780771523	-2.90093930798547	163.465979371912	-2.90460854526546	163.416157193006	-10.0943048744709	92.872468991747	
1783000000	-14.3261362834992	130.969504397864	-2.90465339251636	163.328761763341	-2.90807343404102	163.424784454732	-10.1686805070968	92.2631211894691	
1783500000	-14.6241864608938	130.940851769111	-2.90750730692436	163.373781852121	-2.90753117970791	163.364730648093	-10.2106879135237	91.6401434206148	
1784000000	-15.0110406153855	129.824833400446	-2.91860718957524	163.415353920128	-2.91323979920538	163.459391262664	-10.2454821407049	91.1728804895953	
1784500000	-15.2687980672666	129.08981631505	-2.91702727578653	163.372825493928	-2.91739831929332	163.381261044195	-10.2783716432363	90.7875229025566	
1785000000	-15.6219200661705	128.582298820593	-2.91623278887344	163.366042048777	-2.93042726933163	163.38889989628	-10.3352824204954	90.3860870654052	
1785500000	-16.0444997126653	127.341017354418	-2.9210777371464	163.363179449788	-2.93034087066423	163.362130193784	-10.3695802571429	89.9757843368068	
1786000000	-16.4035552972325	126.029588905972	-2.93567672452143	163.373179588657	-2.93313709921093	163.388678103197	-10.4152802897798	89.4547028195682	
1786500000	-16.7705880526412	124.899433072121	-2.94064274314511	163.475877134756	-2.93238970020127	163.432628080933	-10.4572698738624	88.9815594010885	
1787000000	-17.1591674839624	123.954784780667	-2.93715610325461	163.311207868447	-2.9307163835541	163.387107246768	-10.4973685016126	88.4746278778012	
1787500000	-17.4831870430823	121.648737214953	-2.95594336643791	163.343834861246	-2.93919674355616	163.404969969227	-10.5891566051319	88.1578265041553	
1788000000	-17.7638367445714	120.187667604627	-2.94971316848053	163.318124549933	-2.93684813585467	163.394853195109	-10.627479824546	87.5093736499216	
1788500000	-18.2265413834427	118.48410980182	-2.94436230499522	163.361043449533	-2.94071990923674	163.335513544582	-10.687902945286	87.1779552985919	
1789000000	-18.4253639261638	115.911380099081	-2.96063593441674	163.217802152559	-2.94616789822474	163.431406603652	-10.7479769550642	86.6045693205458	
1789500000	-18.8999127274645	113.804001509352	-2.94609693415796	163.32406557345	-2.9459895364845	163.331166887693	-10.7789344478955	86.0758086128105	
1790000000	-19.2454580356691	110.795822745796	-2.93996466449681	163.357854568683	-2.94431462364405	163.386613292249	-10.8324922198393	85.7571174193461	
1790500000	-19.5007102088096	108.113174026639	-2.95024527982224	163.282251912133	-2.94581487662027	163.335293245809	-10.8907975538252	85.3469379376432	
1791000000	-19.7590840943683	104.569757930417	-2.95266715895221	163.30358086967	-2.94198405923177	163.290354299967	-10.9497943941653	84.7655116859143	
1791500000	-19.9712438314417	100.335959168705	-2.94852625159282	163.278988207211	-2.94574877704896	163.326668837518	-11.0313689212765	84.3542820233475	
1792000000	-20.1545718725714	96.9495210102873	-2.95257055720799	163.3357551609	-2.93339146602525	163.311923313626	-11.0811142719098	83.6523094832982	
1792500000	-20.3747120566968	93.1698238160381	-2.95260180503307	163.191323546641	-2.94866310227611	163.245816961772	-11.1320237801901	83.4316436442527	
1793000000	-20.4018391609376	89.2156168919975	-2.95211717791771	163.19464115125	-2.93511037470454	163.262167591303	-11.2171499771468	83.0218824979816	
1793500000	-20.389959059973	85.0039748286173	-2.94457440348739	163.227410771315	-2.94211364576273	163.229938569935	-11.2312359695694	82.5292447809181	
1794000000	-20.323536779961	80.6214505861925	-2.93283480697513	163.154977924161	-2.94758787671529	163.193747211095	-11.3291743633203	82.2073277941512	
1794500000	-20.1748843603438	76.4841036140158	-2.93870393113642	163.137798827265	-2.94315173060219	163.187357973988	-11.3827236907517	81.9876559235593	
1795000000	-20.0637859205197	73.6751801958808	-2.93930631850779	163.115852566052	-2.93628538276804	163.191112119125	-11.480506610728	81.316577076979	
1795500000	-19.8374030093052	70.141443533133	-2.928821774443	163.051022759289	-2.93370250627238	163.115442995479	-11.569015182158	80.9038748316174	
1796000000	-19.7810576542395	66.6516622943815	-2.92457215684853	163.041310739065	-2.92211116667424	163.136302297906	-11.598150135939	80.4910871428333	
1796500000	-19.3257073107319	63.2678157992971	-2.92325074662798	162.999781794499	-2.91129325079393	163.020098892737	-11.6881802628138	80.2465682506595	
1797000000	-19.1054795552479	60.2286236205059	-2.91327086014069	162.96120373728	-2.91620361079769	163.021922257554	-11.7417402798037	79.804708107901	
1797500000	-18.7570098542928	57.6165429235936	-2.91235479818665	162.93823447284	-2.90367789074979	163.017018405251	-11.8314233879333	79.5185858162902	
1798000000	-18.4202348007956	54.9981017676147	-2.90997742447224	162.914464857402	-2.90779320151102	162.956759472833	-11.8812805647032	79.2256993819958	
1798500000	-18.1025034860715	53.1542666964356	-2.89545848896365	162.90799227073	-2.90180892526764	162.947159803072	-11.9691526628719	78.7203099724731	
1799000000	-17.7374289937565	50.7132040002958	-2.8989275199577	162.820586921908	-2.88927522358089	162.911725448939	-12.0374602689859	78.4734049114186	
1799500000	-17.3902745814565	49.5029668105987	-2.88824042783106	162.852656057178	-2.87817505361088	162.805556152289	-12.1244989529147	78.0429774280805	
1800000000	-16.992776445804	47.8552933808184	-2.88103395487713	162.804741915073	-2.88675550066183	162.81879048672	-12.1810686431856	77.7933457007502	
1800500000	-16.7151932645727	46.4932921543346	-2.87494314216356	162.715333951142	-2.87970780244236	162.69215708603	-12.2657082108002	77.533906512031	
1801000000	-16.32673176723	45.6938845891822	-2.87049485110662	162.64997374607	-2.86094824751279	162.716331142912	-12.3879602119393	77.1506661900552	
1801500000	-16.0530803421261	43.7629515943162	-2.86041880771741	162.546839760972	-2.85347004805694	162.638159786789	-12.4296914541994	77.1870062295022	
1802000000	-15.6932067425876	43.2892885950291	-2.85940214493423	162.591415972623	-2.8570112933596	162.564426638829	-12.5336282521177	76.8537520232237	
1802500000	-15.3555503603623	42.4749128702228	-2.84343644024903	162.482761640918	-2.84450879760903	162.519853308346	-12.6263073927416	76.738979949305	
1803000000	-14.9932962664511	41.047110936341	-2.84381099213512	162.432548945049	-2.83137771154322	162.39914595473	-12.6917069894624	76.4601005169235	
1803500000	-14.6773832634715	40.763073210329	-2.83111936854076	162.366167786856	-2.83089085468719	162.355791367703	-12.8125428023799	76.4079993425849	
1804000000	-14.4132462333841	40.4583535338838	-2.82319247679268	162.270266205699	-2.82076867525374	162.347695576272	-12.8893621769686	76.2744220423248	
1804500000	-14.128622605647	39.4902940301853	-2.81476429024717	162.189270863221	-2.81184533755919	162.23082180255	-12.9672398120192	75.8600698157326	
1805000000	-13.8825405320084	39.6949239029445	-2.807002113248	162.131559982316	-2.80557651205572	162.16682047412	-13.0555681844338	76.0895016145286	
1805500000	-13.5109094023135	38.9888108718681	-2.79935995573437	162.020970691484	-2.79303121933472	162.036465954884	-13.1497345644753	75.7457399217158	
1806000000	-13.2865037783005	39.0644345039019	-2.78721281666119	161.929450294091	-2.78596887786674	161.956970662878	-13.2854797938907	75.6152160226847	
1806500000	-13.0406004893896	39.0718827224716	-2.78257070623703	161.913857159592	-2.77035932156834	161.972552043033	-13.332425900043	75.5844004587769	
1807000000	-12.7463479281685	38.7020765585717	-2.77356453159216	161.73589980221	-2.76236728531473	161.827439906488	-13.4482913916001	75.560148684213	
1807500000	-12.5596405778111	38.6640146548094	-2.75990892078425	161.641516388477	-2.75539245670228	161.71441214906	-13.5163184031618	75.7393707464315	
1808000000	-12.3338576214785	38.4285834956364	-2.75054130499429	161.546783022039	-2.74200279655658	161.614483166507	-13.6148489289236	75.8140760069349	
1808500000	-12.0811253046441	38.5365409024327	-2.7397552194	161.423480566211	-2.73871753989024	161.499141593932	-13.7361070456924	75.6672998419985	
1809000000	-11.8644789096296	38.471226096484	-2.72622963807393	161.314423990939	-2.72769571815315	161.385879289284	-13.8099560866401	75.8320940392514	
1809500000	-11.6375905456051	38.6591544542654	-2.71678142873517	161.219018603409	-2.70908364862148	161.390842611062	-13.8845259800755	75.7694945499999	
1810000000	-11.4159538135852	38.5077096572925	-2.70522948830682	161.155339965228	-2.71042479336076	161.248897545084	-13.9838428087146	76.0021452310689	
1810500000	-11.1950081700316	38.7738822227763	-2.6978851156926	161.017826692228	-2.69400604924253	161.040680460598	-14.108768784776	76.1163046919335	
1811000000	-10.982834940882	38.612508024439	-2.69397814913082	160.928669175328	-2.68503088253435	160.95869217809	-14.1953196054248	76.639280789984	
1811500000	-10.8094105119016	38.9924946950918	-2.6781946890699	160.790027396607	-2.6825652454267	160.851475603358	-14.2453822986103	76.9879423938609	
1812000000	-10.6339361515979	39.2064548499537	-2.68090817323428	160.683211955769	-2.67476881693989	160.723943493345	-14.3551624623252	77.1120482513226	
1812500000	-10.4153121312636	39.2280472677735	-2.66075001641845	160.537918443787	-2.65898163499576	160.649088238479	-14.4728051255911	77.526207054903	
1813000000	-10.2175011025194	39.5992496497531	-2.6523541696714	160.456292213804	-2.6417626848408	160.500911728351	-14.5926259616253	77.9018103448111	
1813500000	-10.0297513385116	39.8626394542527	-2.6400407818933	160.316002271003	-2.63627395155201	160.320950096482	-14.6560203193168	78.2946153789114	
1814000000	-9.90609134691611	39.9443835512358	-2.63264889222733	160.151218885676	-2.6275898861483	160.253889569496	-14.7387025191045	78.6711727902888	
1814500000	-9.71802539279206	40.289173790158	-2.61968283060224	160.002258461753	-2.61944427888453	160.079169010733	-14.8692565827006	79.2969996869198	
1815000000	-9.55194938565247	40.490659080391	-2.61101551353643	159.944400404824	-2.61388566872304	159.956146428966	-14.9466496258159	79.7935239296741	
1815500000	-9.39676485448322	40.7842322695884	-2.61267747396767	159.750935812794	-2.58897538857292	159.757217853506	-15.0119293247752	80.115774317983	
1816000000	-9.26994883321346	41.035126759203	-2.60486648485543	159.614295443518	-2.5938376202379	159.66006157784	-15.0788996740755	80.6633795114356	
1816500000	-9.08859225983731	41.2502999328199	-2.5891805922564	159.429954756029	-2.58304530353342	159.474766943663	-15.1857529305573	81.5948400415368	
1817000000	-8.97145412037506	41.7293742414385	-2.59348361275507	159.306822194437	-2.57418644187755	159.33908305228	-15.2515655741366	81.9944720910109	
1817500000	-8.8234525121172	41.7765081999612	-2.57799682152776	159.197542677252	-2.57317535189153	159.223776021157	-15.324946403505	83.0271152319958	
1818000000	-8.67922007250075	42.2916917157062	-2.55982380765509	159.034499243864	-2.56191228027155	159.068130014366	-15.3869264026757	83.7111677458471	
1818500000	-8.56727665247625	42.604709380954	-2.54663641541595	158.839592374825	-2.5518465352021	158.866402747571	-15.4581521156931	84.5538463864374	
1819000000	-8.41100684110648	42.9691639017626	-2.53811227032256	158.674492438159	-2.54067479760469	158.722304833829	-15.5102909451836	85.3568142858307	
1819500000	-8.30566597690349	43.0888243348257	-2.53454179548171	158.51224089078	-2.5416692308921	158.624720739346	-15.5434451813398	85.9185701693397	
1820000000	-8.16030427431575	43.6543438825916	-2.52674562501725	158.382707546112	-2.52720025430147	158.363514858448	-15.6117546927168	87.2332558727582	
1820500000	-8.0646224751479	44.109391364027	-2.52175015339428	158.204057229279	-2.517526279448	158.243353445411	-15.6098866391578	87.8148575853852	
1821000000	-7.94163784096972	44.4670069750415	-2.50756490685721	158.058766091396	-2.50580928853469	158.112161063774	-15.6822328462226	88.8189953672261	
1821500000	-7.83016722559591	44.8104331420681	-2.50348652808408	157.847231255961	-2.49893944349204	157.914766119769	-15.7169190227291	89.4810232128878	
1822000000	-7.70872214575617	44.901343071557	-2.49883662887971	157.718313007197	-2.50397818626508	157.744698958221	-15.6981544248492	90.5030328311548	
1822500000	-7.59673864176853	45.4311508815925	-2.48667680815863	157.546482667899	-2.49494546640846	157.599233808779	-15.7569537159553	91.5628773592684	
1823000000	-7.53996472555445	46.0146225804359	-2.49728687381981	157.359825498287	-2.49048635192911	157.429892208443	-15.6988050141577	92.6524807251967	
1823500000	-7.41487797478847	46.4070134856735	-2.47708980407229	157.185270450037	-2.4821514923594	157.202028127487	-15.7493491046357	93.5696106430112	
1824000000	-7.33937607818611	46.6810258190106	-2.47930622075388	157.000793205499	-2.4862611586091	157.083290470103	-15.6912090568421	94.4496425270134	
1824500000	-7.26082793914294	47.0851428036338	-2.46341139843648	156.792336685457	-2.46968089171975	156.840145683266	-15.6556314525723	95.6868765507929	
1825000000	-7.13591601109873	47.7691509004345	-2.4612775148687	156.702332406912	-2.47340570895786	156.740698955618	-15.7252067750242	96.4252616795044	
1825500000	-7.09296906580843	48.0929635161495	-2.4740606003244	156.425721102532	-2.45321350469696	156.479151698313	-15.6416553162437	97.4274466749908	
1826000000	-6.98241352958603	48.4593093514352	-2.45793315515002	156.254846485892	-2.46006535102838	156.375647039802	-15.6284737848115	98.5066078147885	
1826500000	-6.91470358069044	48.9549496853338	-2.45507401028519	156.100978258199	-2.45968985067411	156.129203237522	-15.5266219778538	99.3927390693395	
1827000000	-6.87025998641577	49.2819994002266	-2.46069978396077	155.90520601517	-2.4472867124115	155.94319889126	-15.4840393710768	99.9843167398619	
1827500000	-6.77762104260638	49.7399172464995	-2.44927359891485	155.710643579558	-2.46673674392917	155.754162088069	-15.4866974954353	101.024157899605	
1828000000	-6.67789136437213	50.1606104267222	-2.4294830955364	155.586601960345	-2.45397760293716	155.590909402464	-15.425128116325	102.146723262913	
1828500000	-6.64538511647681	50.6101137211429	-2.46153705510097	155.404175198858	-2.45509991773215	155.370480434638	-15.3120536849273	102.756902108484	
1829000000	-6.56046272441792	51.0923448694989	-2.44863485049705	155.216755341136	-2.44905610349292	155.288514841523	-15.2791739402879	103.90772583193	
1829500000	-6.51441296186947	51.6160679850918	-2.44254129497278	155.028398728857	-2.44681691476699	155.101730321159	-15.2270503690414	104.508983018901	
1830000000	-6.42549555243032	52.0546392493847	-2.435540860258	154.862089952395	-2.44692407430569	154.828635050225	-15.1341690768263	105.444501643129	
1830500000	-6.3722129940163	52.5904960125366	-2.45128012410833	154.645135208454	-2.44691823992906	154.688994752932	-15.0444679634106	105.96751191382	
1831000000	-6.32331727886208	53.0194184769621	-2.45478410263509	154.548518311973	-2.45187639959762	154.545172521431	-14.9240435813064	106.478554120555	
1831500000	-6.27854830928293	53.5898072956894	-2.44175581087379	154.317493207892	-2.45109374990461	154.342898962406	-14.8832342440256	107.400022568152	
1832000000	-6.22990730430014	53.8975696765604	-2.44492719614647	154.07874841971	-2.43902183360196	154.140271290583	-14.8112375014448	108.422476749143	
1832500000	-6.1831717400479	54.5974058637362	-2.44900917974863	153.93701217243	-2.4609312710447	154.014281027649	-14.6840850289155	109.037605612908	
1833000000	-6.11824465357423	54.8798084303539	-2.46129368266558	153.720767282222	-2.44429938320572	153.856651992318	-14.6285196163739	109.509091326232	
1833500000	-6.06966550853016	55.3536274975237	-2.44927939473051	153.566114365848	-2.44464115720235	153.568414258887	-14.5187203066636	109.943491562002	
1834000000	-6.04098054385347	55.8522051782118	-2.45357597973348	153.39348442679	-2.44180384689182	153.42197102978	-14.4199268045811	110.748074539548	
1834500000	-6.00918062590659	56.4742971514925	-2.45439157652656	153.192085041717	-2.46362377285697	153.200026088634	-14.2979855948743	110.691863114314	
1835000000	-5.96724665032839	56.9822088799588	-2.46855940931378	153.00959181374	-2.46423141090023	153.095519818562	-14.2073027839518	111.40714545163	
1835500000	-5.95226342096206	57.5407520358912	-2.4661301343342	152.75305030671	-2.4670897465902	152.824491035073	-14.103512031326	111.680283259702	
1836000000	-5.90229701642933	58.1831396399194	-2.47453620294892	152.735970461028	-2.46358920378585	152.741194721068	-14.0326188620311	112.171048172149	
1836500000	-5.86271438487945	58.6792931881546	-2.46496209302167	152.516341572669	-2.4667555052721	152.479552571891	-13.9075223262844	112.375655401801	
1837000000	-5.85626853096409	59.0480356646666	-2.47137921210698	152.351403722211	-2.46948441039259	152.318638113607	-13.8312365505258	112.784778898141	
1837500000	-5.82810577627135	59.623614405809	-2.47445706955234	152.198892421947	-2.47964315699622	152.156126218924	-13.7479127788584	113.273661133949	
1838000000	-5.81008199982509	60.1227546875793	-2.49203773228617	151.918734286396	-2.48649914196918	152.008209778617	-13.6362931117653	113.439653462148	
1838500000	-5.77266180812071	60.7435850086183	-2.49329715403524	151.813291865686	-2.48852196730399	151.861731745757	-13.5536893767923	113.647376329231	
1839000000	-5.76684122240244	61.309803322997	-2.48664069984362	151.660549845145	-2.49517739823778	151.696829142117	-13.4375062548436	113.811201955917	
1839500000	-5.77117467802837	61.7789909123753	-2.50412241374458	151.479894759009	-2.49282047232924	151.528547996634	-13.3633615751778	114.148384381392	
1840000000	-5.71718245612904	62.4304453756747	-2.51498893518525	151.355055476094	-2.51194700680775	151.370251888787	-13.3188103994947	114.167761220007	
1840500000	-5.7288649727607	63.070490919511	-2.51970216728554	151.18531216198	-2.51944817721942	151.150732812267	-13.2331667200083	114.211246567594	
1841000000	-5.74354354017509	63.5774743164625	-2.53665238091201	151.014331372998	-2.52126367116917	150.994311248926	-13.1284318795451	114.401795520752	
1841500000	-5.70955395839454	64.165278598022	-2.53174846148862	150.874414504034	-2.53330180648566	150.839818039111	-13.0355312972149	114.259539159543	
1842000000	-5.73413763211546	64.7185413112767	-2.55586482488565	150.63455171946	-2.54155636531485	150.696672949183	-12.9354928758381	114.338688636966	
1842500000	-5.71322804447165	65.2679804836226	-2.55044157686429	150.590487351752	-2.55815457646897	150.561036488128	-12.8706047020112	114.46458837935	
1843000000	-5.6871886675666	65.9630365024791	-2.55681740955144	150.362263222242	-2.55201605500135	150.455431274538	-12.8234999889677	114.633002269138	
1843500000	-5.71740460710071	66.5057053456799	-2.5707481881327	150.244603083893	-2.57358960986035	150.294662330584	-12.7614989769564	114.506281540445	
1844000000	-5.69941524724394	67.1210510159545	-2.56126897544298	150.086731261445	-2.57223492916528	150.128484170902	-12.6599670960943	114.616505474701	
1844500000	-5.69648115092311	67.6059159220223	-2.57797688685817	149.9330656368	-2.58387465255558	149.995418899586	-12.596181171169	114.564038136417	
1845000000	-5.71081206964296	68.3072674209938	-2.5959090064168	149.86032580829	-2.59200809575749	149.804408192898	-12.5194731265513	114.315354612718	
1845500000	-5.73045000195867	68.8179041749255	-2.60488380469257	149.636108821583	-2.61159508887552	149.66920083749	-12.474952731204	114.339206555302	
1846000000	-5.7400762659816	69.5737060691898	-2.61267509944951	149.565453750097	-2.61037331734025	149.615897071204	-12.4236853919082	114.33347104319	
1846500000	-5.73667058001572	70.2937998749317	-2.63592097142774	149.39238426868	-2.62396193854114	149.408248449848	-12.3992732980881	114.095960220111	
1847000000	-5.74417540081264	70.8428039984603	-2.63403346440236	149.219033120484	-2.63974130995928	149.33426541806	-12.3391491602441	113.972849210436	
1847500000	-5.76472143747687	71.5052655596512	-2.64774474933431	149.136939820907	-2.64646016545842	149.165798928537	-12.2560659289439	113.564260145351	
1848000000	-5.79304620515517	72.1066015603728	-2.64746576147044	149.012348584078	-2.65677037207714	149.057350521294	-12.218887299599	113.638320813569	
1848500000	-5.81387108248459	72.5087706286576	-2.66976494921887	148.820751265524	-2.66204257779031	148.859382017991	-12.165821671823	113.453442382209	
1849000000	-5.81181231436862	73.362108985654	-2.68789857647517	148.733872207827	-2.67061019946709	148.804400886169	-12.1544498055081	113.330470136642	
1849500000	-5.82918645098666	74.0146671528972	-2.68814894160264	148.706850842371	-2.68616206058139	148.679281515041	-12.1053950335081	113.30251634896	
1850000000	-5.85920321066706	74.5519210265238	-2.70390361896947	148.461071264294	-2.69282173809786	148.542090083337	-12.0580796795902	112.847894395916	
1850500000	-5.87987398572451	75.2430751986261	-2.71293342473529	148.410268109248	-2.70280108484479	148.420658820237	-12.0439745749935	112.726098239638	
1851000000	-5.91879503657462	75.973321127215	-2.71793468713049	148.26849211504	-2.71238241956602	148.218412112838	-11.990265401074	112.302608037909	
1851500000	-5.92876800405338	76.6747997065607	-2.7285150705527	148.191757819879	-2.72660996908584	148.192764264576	-11.9727325695702	111.89000404388	
1852000000	-5.96919683731509	77.3623650216593	-2.73756304722442	148.101001750495	-2.75313207944239	148.089201534932	-11.9579163112875	111.587487733322	
1852500000	-5.99637648139234	77.8896172830958	-2.75598149888057	147.912058191075	-2.75409076060357	147.975116537068	-11.903987881507	111.652671261118	
1853000000	-6.04241084104944	78.6113645366188	-2.77131103937981	147.855640776358	-2.768564998465	147.896396244642	-11.8630399740072	111.211599904513	
1853500000	-6.0592951574188	79.3888736183133	-2.78424234968031	147.767518933249	-2.77883699313075	147.802130916797	-11.8924667493499	111.119388265939	
1854000000	-6.09949147892324	80.0934761929488	-2.80793542891511	147.590172324017	-2.79086379021781	147.672282478069	-11.8804376436615	110.656215600462	
1854500000	-6.15057056118133	80.7914133856384	-2.80093057154256	147.545122988832	-2.80908616741476	147.606498266786	-11.8537602215605	110.312226271122	
1855000000	-6.20060357511132	81.5144733765963	-2.82083401015853	147.449416556878	-2.81433973980654	147.510185006609	-11.8574745777281	109.907470270106	
1855500000	-6.20382479820833	81.904645049838	-2.82745228293251	147.32793558204	-2.82200348122223	147.36422277025	-11.8515311577965	110.025601886935	
1856000000	-6.25702785729364	82.7093150774015	-2.83698466486726	147.255338170601	-2.83401314403879	147.316813895991	-11.8235565681022	109.571743741839	
1856500000	-6.28047469719998	83.2988588432978	-2.84603439681597	147.180473838825	-2.85211177754971	147.216187598281	-11.8009269143893	109.223763937641	
1857000000	-6.35739364190334	84.1235776398057	-2.8650079791564	147.125268630911	-2.86545113747083	147.134058376162	-11.817679044009	108.804632244479	
1857500000	-6.41097437759168	84.8070735043178	-2.87818639532982	146.991572802387	-2.86895584621831	147.032100579156	-11.7909188027512	108.62949537415	
1858000000	-6.46350342454927	85.6179501065026	-2.8827118447627	146.947392793353	-2.8890417688305	146.980645819616	-11.8295582140875	107.854729045473	
1858500000	-6.47649809469224	86.2436476087839	-2.89253482002813	146.816065169696	-2.8894439538975	146.827185709572	-11.8427551478695	107.69460254793	
1859000000	-6.53434538692483	87.0105231305223	-2.90733017563067	146.73434384503	-2.90243573369626	146.836719580251	-11.8201946528834	107.312355875639	
1859500000	-6.57222454091665	87.7304128529125	-2.90474231951124	146.688468115219	-2.90545340027803	146.760827703634	-11.861746670546	107.086934551906	
1860000000	-6.64473926293364	88.636506389344	-2.93119789430744	146.655434102247	-2.93195019886268	146.68879037772	-11.8975064599726	106.469415587292	
1860500000	-6.70109198762427	89.2774491036978	-2.94396859508424	146.592786512069	-2.94094676241789	146.600975343125	-11.8849101602433	106.135713011597	
1861000000	-6.73919099296268	89.9658815135308	-2.95370977529318	146.473020127682	-2.94852541460212	146.534656333853	-11.9067469178264	105.976439837661	
1861500000	-6.80575345004429	90.6948120221604	-2.95721348506727	146.413342696682	-2.95722937534366	146.428118773401	-11.9616636772452	105.339371614158	
1862000000	-6.8736355382284	91.3215473116964	-2.9679971324832	146.386403871444	-2.970251262253	146.429219163483	-11.9615306091484	105.0645920101	
1862500000	-6.92716720618153	92.1328130925074	-2.98785349758045	146.240728431553	-2.98281092125125	146.369266082881	-11.9782973808493	104.66814632406	
1863000000	-6.98013282432348	92.9053551978816	-3.00142148859751	146.204134302417	-2.99322380198574	146.338883417112	-12.0372324590848	103.900430581477	
1863500000	-7.04974310552373	93.54504619884	-3.00708774234401	146.140366740027	-2.98957554724494	146.224240659083	-12.0709339127446	103.811061090648	
1864000000	-7.11563539491147	94.5569218389795	-3.01235123458173	146.129159671545	-3.01298780906207	146.158673629383	-12.0868507520088	103.102407603079	
1864500000	-7.18611899699437	95.2546819242963	-3.02978382308145	146.187012329419	-3.03008787851843	146.191097714617	-12.1230112715746	102.522290416393	
1865000000	-7.26233758933415	95.8043904048055	-3.04869729909765	146.095958031759	-3.04301137855695	146.141808309213	-12.1368064293382	102.300355137215	
1865500000	-7.32215023033806	96.6619032190818	-3.04755639199487	146.070393458778	-3.05771203711853	146.059429739234	-12.2041566351381	101.774660997641	
1866000000	-7.38946041202247	97.3122439426591	-3.06094097827375	145.93179818184	-3.06031748789673	145.978922398078	-12.2281737197491	101.329246534092	
1866500000	-7.45660871074304	98.2603203871739	-3.07355334786484	145.931983984618	-3.05323562138813	145.989613540339	-12.2676502444298	100.823279024485	
1867000000	-7.5284075075653	98.9993597483772	-3.07187278475472	145.867546335224	-3.07235201129064	145.958802976473	-12.337326320668	100.59342515945	
1867500000	-7.60504006422329	99.7131019220935	-3.08157128780093	145.865076405656	-3.08720461731032	145.934051845771	-12.3729749488445	99.9975115211153	
1868000000	-7.69406131433884	100.444643686576	-3.09372649411686	145.77746522319	-3.09435037619351	145.828167420113	-12.405528595868	99.3079395151392	
1868500000	-7.79107222756358	101.219653399269	-3.09799747885959	145.756047202946	-3.1067843860689	145.856112140051	-12.4467432186226	98.9573947505831	
1869000000	-7.84018308965152	102.191979105965	-3.11259878496293	145.661055472942	-3.12531280791086	145.750361160119	-12.5265996002406	98.1887080515299	
1869500000	-7.93620117417551	102.96071766768	-3.13211065259602	145.69088110761	-3.13078897637378	145.731243439851	-12.5787346918821	97.9020379768281	
1870000000	-8.02365614395574	103.890456592497	-3.12364596906775	145.686682340469	-3.130971492254	145.704691089748	-12.61014849419	97.5263191720889	
1870500000	-8.10247918331311	104.304317111373	-3.14472966762737	145.620659610423	-3.12590343482319	145.711891846742	-12.6463201913235	96.9016762031663	
1871000000	-8.18991767816241	105.170317062411	-3.14403103305192	145.509206112298	-3.14434046250662	145.671382012274	-12.7225299238628	96.1832002026182	
1871500000	-8.27227954006894	105.951440109038	-3.15970345585445	145.594436629987	-3.15518682943695	145.617567927348	-12.7914015675535	96.2208965589087	
1872000000	-8.32667193266293	106.759118295674	-3.16381584858722	145.574963159605	-3.16328715599373	145.58392837476	-12.8662871911443	95.2821353717686	
1872500000	-8.44963321552478	107.574437070452	-3.17305327033707	145.530609794016	-3.16644174075023	145.581571471964	-12.9184619535987	94.8376785381631	
1873000000	-8.55616934428369	108.35889184355	-3.17657531674518	145.510879360092	-3.19276504926021	145.616710368454	-12.9807032313982	94.0358680082385	
1873500000	-8.66942352030698	109.167624698421	-3.1974229257315	145.545433877985	-3.19449808063285	145.512200336624	-13.0008386119517	93.6268403407049	
1874000000	-8.76546915830319	109.744475451732	-3.19145630972867	145.464325971561	-3.19383754609028	145.514657997864	-13.1015158345874	93.2016742142579	
1874500000	-8.85629736219617	110.748185496448	-3.2031756967332	145.489730349278	-3.21514804165923	145.451838167799	-13.1458773741317	92.5357312708719	
1875000000	-8.95942756600589	111.637355905436	-3.21075514449991	145.431419815835	-3.20654753080534	145.469317542025	-13.2274213557664	92.3018667572334	
1875500000	-9.06397191027956	112.371444535826	-3.22210797602372	145.342102368015	-3.21634354188029	145.516633643178	-13.3099905204248	91.4856614051827	
1876000000	-9.19597242650476	113.09018340698	-3.22420620579645	145.404515378772	-3.21719839915411	145.443545558606	-13.3549677107889	91.1864079802055	
1876500000	-9.30156173664489	113.86352977627	-3.23487003956405	145.362913302917	-3.22083832343261	145.41752452862	-13.4679083544083	90.4130111387186	
1877000000	-9.38588701929842	114.799171588647	-3.23524102155155	145.337416385248	-3.22309886225719	145.423077505354	-13.5291093141846	89.9618112095377	
1877500000	-9.52215617681974	115.504463708305	-3.23651124740413	145.313158002573	-3.23063136271001	145.428954591872	-13.59887069654	89.505893388085	
1878000000	-9.62584964325837	116.511793088268	-3.25048277676256	145.362308204544	-3.23490076488111	145.415565338773	-13.6884755201928	88.8677176502335	
1878500000	-9.73391602783528	117.235713864265	-3.25944604564011	145.269740612317	-3.25899613570861	145.365511288	-13.7384561313484	88.3506573360779	
1879000000	-9.85673124237519	118.168019373416	-3.25750769588776	145.240378373225	-3.24849909492166	145.37112233652	-13.7672493196647	87.3503320927096	
1879500000	-9.97110005459812	118.733613563336	-3.26169866543611	145.253276235699	-3.25869279551575	145.327961275091	-13.8959865799906	86.9389648693169	
1880000000	-10.1078037607422	119.684330876616	-3.27734609123326	145.327380728938	-3.26345066845579	145.349709112737	-13.9758939900117	86.5479397784652	
1880500000	-10.2246311796462	120.472665529251	-3.28464748075044	145.254275675619	-3.26865774888921	145.310906129284	-14.0932431923551	85.7910346610217	
1881000000	-10.3647298109367	121.286491432112	-3.28522433233821	145.247061821897	-3.27824405591535	145.357059845464	-14.1605708914821	85.3218681383509	
1881500000	-10.4950661238343	122.032841916892	-3.2729881194988	145.251882736375	-3.27896866322338	145.358000890087	-14.2695578751258	84.8417370559338	
1882000000	-10.6373071115815	123.02947587704	-3.28734602649278	145.24041934561	-3.28754833099103	145.296860464814	-14.3140502989196	84.1956409377409	
1882500000	-10.7674078138136	123.653322056482	-3.29025449235716	145.251037774582	-3.28017130152693	145.260031927893	-14.4388368319004	83.8530751664669	
1883000000	-10.9247706864428	124.886873502402	-3.29866678451508	145.205571232717	-3.28640471648289	145.306824029888	-14.4781810702723	82.8230600359032	
1883500000	-11.0843585979498	125.31510661453	-3.30369596027374	145.152409294842	-3.3023456557206	145.280757604941	-14.5670081776889	82.6020236351666	
1884000000	-11.2398282376552	126.253543691848	-3.29210384567599	145.256789034992	-3.29846213067743	145.25340525291	-14.6680781307793	81.9118246563155	
1884500000	-11.3879203580946	127.086808431565	-3.30546531047006	145.24202707887	-3.30525309732741	145.256287557838	-14.7698157136176	81.4517557658513	
1885000000	-11.5415519203088	127.939632870041	-3.31027122002226	145.220839553575	-3.30918862541387	145.211497750347	-14.8600846863775	80.8636196363461	
1885500000	-11.7059370047092	128.86782740782	-3.31395378442397	145.164122365879	-3.30978840649419	145.238403648179	-14.9263194845837	80.3091245637202	
1886000000	-11.8676529495545	129.755541070147	-3.30049816819064	145.240920752109	-3.30735529401079	145.256948740527	-15.0144646914421	79.5308723693992	
1886500000	-12.0422601520871	130.434624519824	-3.31334511701759	145.187461297314	-3.31910392460798	145.228713046445	-15.1101794570708	79.3666229438498	
1887000000	-12.2319407140809	131.408689714645	-3.32103163392219	145.175603809969	-3.3175974719375	145.253593691394	-15.1776031135139	78.5386431625906	
1887500000	-12.3918441073286	132.229546828762	-3.31695406010121	145.182798035131	-3.31559946074281	145.220385897589	-15.273552394567	78.4460782877254	
1888000000	-12.5683804878732	132.761036765497	-3.32585234499229	145.175483688332	-3.31864054249007	145.169172228779	-15.3622030570428	77.5788714882466	
1888500000	-12.7191427032882	133.732621684517	-3.32146484913051	145.088275842473	-3.32443876473524	145.178514540203	-15.5319208670823	77.1367933900551	
1889000000	-12.949313685965	134.753585320908	-3.32197207932726	145.171378220092	-3.31307209675133	145.185596328562	-15.5540492091496	76.8419009669941	
1889500000	-13.0960236636501	135.635321327894	-3.32827804929646	145.140170638093	-3.32016004908068	145.150515078208	-15.7000072945838	75.9508404365488	
1890000000	-13.3297048872064	136.483099636731	-3.34040912358306	145.072718601504	-3.32578758175625	145.123214957867	-15.7832795747544	75.5009964559914	
1890500000	-13.5334967903245	137.436097068265	-3.33003911592953	145.115436575162	-3.32412216925225	145.134735340816	-15.8218343347824	75.3289639411907	
1891000000	-13.7573399891753	138.098840704022	-3.32959444074164	145.045669044498	-3.3258272710461	145.137527763673	-15.9481092419002	74.712329659066	
1891500000	-13.9749960830076	138.803544538063	-3.32839852524077	145.076085064349	-3.34471670752245	145.14106081764	-16.0726204274076	74.8504896493632	
1892000000	-14.1699288889154	139.771215114843	-3.33031621314414	144.987453967342	-3.32547481152417	145.086353035429	-16.1624711742812	73.8497140919027	
1892500000	-14.3569085528433	140.779944733686	-3.33373155293692	145.040332495988	-3.33729889478902	145.093809080438	-16.2393151417658	73.2087294424787	
1893000000	-14.6318663530761	141.525616432645	-3.33104110995535	144.987728390054	-3.33217810049373	145.07598396023	-16.3410523122446	73.2224146273537	
1893500000	-14.9085824085297	142.771536300342	-3.343794062465	144.987960576642	-3.3236535020453	145.049840261201	-16.4327677558305	72.8076428343204	
1894000000	-15.174254600724	143.475752089121	-3.3349183842425	144.940191550868	-3.3330127459203	145.020088418378	-16.5694929741013	72.4235518069075	
1894500000	-15.4159603058646	144.109096343125	-3.3305061687007	145.003377015286	-3.34207304333687	145.053790226713	-16.6264337522094	72.2924012694158	
1895000000	-15.7340460169425	145.346807796373	-3.34053750076235	144.988885053815	-3.33178912741825	145.01361539966	-16.7469914098461	71.9608901397795	
1895500000	-15.9062413044301	145.885755863937	-3.34103684697116	144.910069547394	-3.33030751504607	144.974746816303	-16.9122629982645	71.3965699271408	
1896000000	-16.2559363556288	146.762935156521	-3.33947211038462	144.890830023038	-3.33597651012106	144.899728148765	-16.9552888950772	71.0212739982792	
1896500000	-16.460780779476	147.838493298007	-3.33356551256917	144.859556718127	-3.33381120121072	144.966988197555	-17.068090354051	70.6372718285393	
1897000000	-16.8210855344354	148.694526694238	-3.33181619908544	144.865263248677	-3.32895406746557	144.830564285699	-17.1806391221706	70.6861809615808	
1897500000	-17.1333514884909	149.468238727607	-3.33631325609399	144.832359526116	-3.32780335034698	144.897424057695	-17.285243533716	70.3651269778844	
1898000000	-17.3814576963534	150.581172628394	-3.33790895989045	144.866980148195	-3.32907401457202	144.883226417402	-17.4400624876772	70.4261142741846	
1898500000	-17.76504199376	151.473870009734	-3.3252818285391	144.823853082255	-3.33576277737652	144.824124120543	-17.5166058275054	70.2921996302854	
1899000000	-18.0881707131694	152.666956755197	-3.32930888480243	144.64063735849	-3.32362264674807	144.823101046756	-17.5857448691922	69.8164822152027	
1899500000	-18.4581577887389	153.444869122975	-3.33309235689754	144.674616398931	-3.33100697031234	144.721501660473	-17.7028673939796	69.6971933455544	
1900000000	-18.9124645711634	154.207718090218	-3.32250824078426	144.692111855008	-3.32921452665548	144.738102566621	-17.8045187828135	70.0283760680407	
1900500000	-19.2949039926432	155.700031682146	-3.32678236559524	144.676245534219	-3.3265490747109	144.648403344928	-17.9782398732173	69.5033281928744	
1901000000	-19.6895768354228	156.259813101675	-3.32675287360628	144.592742570769	-3.33224177140457	144.702481580898	-18.023231371172	69.5214950278906	
1901500000	-20.0516554955405	156.888037249626	-3.34132796495157	144.600567215405	-3.32363405665088	144.642184286747	-18.1854882127228	69.6098368549571	
1902000000	-20.5726075110109	158.629245065981	-3.32446737089607	144.57121448411	-3.3266865102523	144.58239282931	-18.2526026379866	69.6261300744711	
1902500000	-21.0894611339847	159.579661746913	-3.33771807413105	144.50686203804	-3.3173122275752	144.547525427113	-18.4120762155134	69.9883899603139	
1903000000	-21.623295981555	160.774439631613	-3.319647387311	144.478066557461	-3.33231160361086	144.513116990981	-18.4945216688565	70.4279203667441	
1903500000	-22.1967915075738	161.946431474545	-3.3262717333952	144.411233193433	-3.32766351559617	144.451963627143	-18.5997409672657	70.3467254784481	
1904000000	-22.68517490115	162.508463003991	-3.32245473471619	144.357738620605	-3.31853412248393	144.38718556289	-18.7511122170307	70.6068899134682	
1904500000	-23.2721623542823	164.381161773913	-3.32050298778572	144.297415860103	-3.32110485466331	144.340239135033	-18.7998926574587	71.1106116575644	
1905000000	-24.036061456811	165.928202592379	-3.32092004715216	144.261961896975	-3.31969044484194	144.290602578795	-18.977434153913	70.7884986548532	
1905500000	-24.6759641277487	167.091847357233	-3.32200942096431	144.216996209295	-3.31151397583999	144.316659922233	-18.995349160252	71.2329848921313	
1906000000	-25.4601539423043	168.435975553683	-3.31674631531088	144.204546454687	-3.31897213042163	144.234841890728	-19.1426991052389	71.8142162955067	
1906500000	-26.30348731769	169.271436890224	-3.32587623874519	144.119162260927	-3.31857404601893	144.15021591056	-19.3314612788173	72.0469664134336	
1907000000	-27.1312930143563	172.350769367588	-3.31847026989999	144.095466888944	-3.31596165724544	144.126159087759	-19.3272602549787	72.8571965885493	
1907500000	-28.4119922528487	174.517212262164	-3.31926650995959	144.032598555971	-3.30249407415052	144.09165722732	-19.4684651703061	73.3015698070276	
1908000000	-29.5893504711507	176.592581858963	-3.31203052193161	143.938993775888	-3.30626179823764	143.966061433547	-19.5680779685766	73.6131614394172	
1908500000	-30.8011178777676	-179.243126986701	-3.31672936982587	143.917526435652	-3.30965309282244	143.96400837197	-19.7011975943021	74.5774475800466	
1909000000	-31.917991296553	-173.895694719221	-3.30872411375361	143.839406388586	-3.30750049530497	143.891600776854	-19.7558379864914	75.2961461510599	
1909500000	-34.1039903877144	-166.213173510462	-3.29790581121639	143.782056623299	-3.29951519290928	143.875135150171	-19.8559388779908	75.9174874227899	
1910000000	-35.9161410677288	-160.499597840871	-3.29950252285045	143.750227928639	-3.29442332470447	143.7864192611	-19.9533133075318	76.1845157138952	
1910500000	-37.4760963083905	-150.624038831914	-3.30717999938252	143.695409867811	-3.29957711840303	143.731491584848	-20.0166765514346	76.9678969397659	
1911000000	-39.6822015790904	-123.875522045502	-3.29235862262777	143.602727685432	-3.30853153755759	143.646184945222	-20.0884262780077	78.0847010316813	
1911500000	-39.9803316659229	-100.216541296746	-3.30892633429589	143.560753219447	-3.3074110169163	143.528304942763	-20.075782908979	78.7678016978289	
1912000000	-39.8233728272554	-68.325385941146	-3.29754215522899	143.476884505734	-3.29165119416953	143.517436629337	-20.1703005481451	80.0638164645038	
1912500000	-37.0303426999754	-54.4040498740233	-3.29915256662925	143.396844413363	-3.28693040482725	143.44006936601	-20.3046749210361	80.6467242287911	
1913000000	-34.9782834387748	-40.9456157863782	-3.29555147248533	143.305873151936	-3.2827591081242	143.366558576695	-20.327277866901	81.3128513729694	
1913500000	-33.4449722605539	-36.5737454141602	-3.29942609832372	143.258343388709	-3.29271057340543	143.305848001012	-20.3227910596327	83.0153529951712	
1914000000	-31.6840799474376	-30.1793833525102	-3.29783159515015	143.190177767981	-3.29279726438347	143.227571682298	-20.4392674022689	84.0807269250192	
1914500000	-30.3295052763746	-23.7586938250466	-3.2793413742795	143.102093304443	-3.29020816498727	143.181335876802	-20.4160208868218	85.2405155386824	
1915000000	-28.976082260714	-22.4064478918185	-3.28463869013828	143.02126358151	-3.29064365189268	143.075766871273	-20.4557838670944	86.7360474566151	
1915500000	-28.255755248421	-20.5648052347625	-3.29510415949066	142.910629213796	-3.29760214719158	143.006307120062	-20.5019580617346	87.5872265693553	
1916000000	-27.1898916279711	-17.5901346773655	-3.27904492180696	142.908301146888	-3.29397005334453	142.925039986242	-20.4268917156718	88.749398100384	
1916500000	-26.5068406999172	-16.4892315055034	-3.30196426490839	142.836190118709	-3.29755100648569	142.753571139864	-20.4079340661153	90.1561313113794	
1917000000	-25.5467424480428	-14.4946732547324	-3.28190560516039	142.751297003879	-3.28431849431468	142.758480468522	-20.417507336768	91.4312327518506	
1917500000	-25.1511988740671	-12.9718802866281	-3.28525665982049	142.594816431234	-3.27960553818121	142.714229852651	-20.483277941038	92.0731067881256	
1918000000	-24.4474889696908	-11.7938506375537	-3.29543616239445	142.579100633246	-3.28151694500586	142.545655124271	-20.3940035258149	92.7507178062589	
1918500000	-23.6983885234589	-9.72767341115212	-3.28744781787002	142.456896326843	-3.27756171943606	142.45160622438	-20.358252923133	94.5884321897059	
1919000000	-23.3799743775886	-8.98135528458542	-3.28577342811787	142.436539931624	-3.28717290091422	142.380824542425	-20.3059561237722	95.7486033137379	
1919500000	-22.7723771079856	-6.89359042490606	-3.27518604691086	142.296177826712	-3.2774886200878	142.340647967228	-20.269076966202	97.1641002579494	
1920000000	-22.2467717585438	-5.79163521339396	-3.27589580094832	142.179765416548	-3.27331770141405	142.258026971055	-20.2301781729515	97.9337536336284	
1920500000	-21.8564310253854	-5.21181845328316	-3.28751770368625	142.131140675176	-3.28426917250432	142.141229116179	-20.1254949368787	99.2498348705221	
1921000000	-21.2730666200585	-4.00062336732078	-3.28503743206803	142.045655615216	-3.2749933537494	142.068737940155	-20.0944332696707	100.641643516543	
1921500000	-20.8923519432031	-3.25595323989569	-3.2842857669569	142.021220414598	-3.27418948529734	142.004579473546	-19.9454637242973	101.387314554413	
1922000000	-20.5308289304844	-1.63901764437189	-3.29089674195471	141.890287617294	-3.28479774246857	141.942721426392	-19.9238534901365	102.660428325932	
1922500000	-20.2359133865991	-1.28107144880481	-3.29138881914469	141.71757349057	-3.28801353326264	141.826892938886	-19.7013825173777	103.313085812262	
1923000000	-19.9712817400646	-0.506618275545632	-3.28281866629143	141.689764624256	-3.28218569591344	141.691329059935	-19.6905170667993	104.254204766005	
1923500000	-19.6207576981948	1.10639071524065	-3.26716494317532	141.64106400738	-3.28773541642307	141.575630801261	-19.6029462961949	105.617510271314	
1924000000	-19.3255930910283	2.24379825419706	-3.28682078904342	141.510630406321	-3.27871985605071	141.531079424735	-19.463031874457	106.338424515868	
1924500000	-18.9635435423906	2.84487132615228	-3.2941835292049	141.394763274427	-3.29087354389189	141.49954229039	-19.4163009892125	106.852208584045	
1925000000	-18.6890061889001	4.13843302127751	-3.28487253248374	141.305233336398	-3.28067893519354	141.291702545412	-19.2950049162476	108.326120032092	
1925500000	-18.4634333264816	4.19934635198895	-3.28783093009382	141.191965728026	-3.28533644366603	141.198254405246	-19.2186691086274	109.119737237366	
1926000000	-18.155235014532	5.47188014854733	-3.2918541451655	141.144057389918	-3.28118453908096	141.091657153062	-19.058102542662	109.802000188308	
1926500000	-17.9206121856645	6.32195147003075	-3.29400456648958	141.039560887406	-3.2923395298678	141.027068238002	-18.965460130542	110.546929019315	
1927000000	-17.6565124263009	7.73926346246746	-3.297323290436	140.915935824457	-3.27542279463464	140.970099462992	-18.8353932182227	111.37601531347	
1927500000	-17.4435427536252	7.98772349291677	-3.30439771819212	140.864138283831	-3.28798659352635	140.870150614219	-18.6656301902872	112.200468760232	
1928000000	-17.2512217378413	9.55274756652182	-3.2973034993493	140.715498776507	-3.28525147456988	140.733726793377	-18.6061374506696	112.435312914941	
1928500000	-17.0465572179124	10.1827966693306	-3.29065304266178	140.671049389192	-3.29299263274289	140.695427499081	-18.4474440918227	113.219472323581	
1929000000	-16.9187634283629	10.9659608512778	-3.29550466684097	140.572900570927	-3.29351228686048	140.620200493391	-18.3511328991048	113.52978052976	
1929500000	-16.6087531775199	11.9973098730493	-3.29776798789169	140.465377219668	-3.28253314454818	140.446914510326	-18.232849862676	114.546186829744	
1930000000	-16.4927738941564	12.7413536519397	-3.30469753382524	140.402369917839	-3.29465770853265	140.354822218835	-18.0570816033147	114.647777535464	
1930500000	-16.2759294259225	13.7637809645149	-3.29485412489721	140.214264318351	-3.30226931702694	140.255835104028	-18.0004429537444	115.580701077307	
1931000000	-16.1871574124686	14.323633939278	-3.30590708225839	140.127504087784	-3.29906872560735	140.172263445607	-17.859736057198	115.853013871224	
1931500000	-15.9236149685933	15.3302777298941	-3.30333371568431	140.059834970905	-3.30036357754603	140.051615192161	-17.7820507666314	116.545974324952	
1932000000	-15.8154849511302	16.1649542920411	-3.30247953690771	139.980616970877	-3.3116500185031	139.938883739728	-17.6761950657049	116.606331835036	
1932500000	-15.5617760322191	17.1659238702503	-3.30410240802094	139.902810962738	-3.30449262622948	139.84766963141	-17.5379934709369	117.626074221517	
1933000000	-15.5207391032203	17.6473795802022	-3.30516127500477	139.811268682176	-3.3044541822644	139.772844240184	-17.3803292727778	117.423848802077	
1933500000	-15.3310469243657	18.8047954716123	-3.31267754867497	139.652811977414	-3.3048898092528	139.65637235103	-17.2374596586477	117.723942944768	
1934000000	-15.2059122698876	19.7529795203475	-3.31905046811919	139.570328070549	-3.30106913822293	139.581306951953	-17.2721202419205	118.304886771561	
1934500000	-15.0928661924928	20.1754048551629	-3.32263218921256	139.476621171684	-3.30800827306942	139.474562644053	-17.0610260600993	118.057452210359	
1935000000	-14.9085821080889	21.2517456161184	-3.33083540494015	139.343873867966	-3.32441666119843	139.374476666351	-16.9861371111837	118.641128450088	
1935500000	-14.8105992907316	22.0212654723347	-3.3169363235488	139.261288512626	-3.31988104976603	139.252881769409	-16.8903729070591	118.745679437314	
1936000000	-14.6659638654332	22.932316467817	-3.32462146483049	139.180185830643	-3.32149749075771	139.161284443614	-16.7718641804786	119.274608099515	
1936500000	-14.5580790568132	23.7775772659704	-3.32608971262103	139.061976470335	-3.32795179556741	139.058311197465	-16.6874541541868	119.483442581521	
1937000000	-14.4758477224966	24.6473570294147	-3.3237299703301	138.959615651233	-3.33180391237795	139.018992139523	-16.6242072587735	119.369987207525	
1937500000	-14.3864436626069	25.4845468335791	-3.33624471165677	138.868863883617	-3.33356230025487	138.882051255692	-16.5442658062782	119.197573902728	
1938000000	-14.2763088684891	26.5990589204355	-3.33912204058246	138.77013634967	-3.34143465182555	138.795874662456	-16.4960384908463	119.271739698897	
1938500000	-14.1543677507987	27.0757530713357	-3.32452648075816	138.639128897405	-3.33927858644054	138.674884075687	-16.4172687735285	119.932054099843	
1939000000	-14.0391050944301	27.8039077227914	-3.34430733463376	138.563887437864	-3.33840201008957	138.611103937608	-16.28882603532	119.899732931724	
1939500000	-13.9507070525446	28.9060992652863	-3.34902703779225	138.491104634623	-3.34714027015399	138.510385478914	-16.1827030690689	119.655251152911	
1940000000	-13.8688810462866	29.7160702094614	-3.34490960923066	138.420101319839	-3.35024450762789	138.378790741464	-16.1521448870076	120.014987403107	
1940500000	-13.75532458893	30.7574864121561	-3.3501058962849	138.275771035078	-3.3462925087233	138.325171483488	-16.108604865611	120.260983381279	
1941000000	-13.7411286253929	31.6050705651195	-3.35429830454026	138.157358771704	-3.35840003037309	138.221253786998	-16.0436280399902	119.634200768318	
1941500000	-13.6656238975784	32.1878431384139	-3.36224410676512	138.145623129318	-3.36956069264951	138.11571782708	-15.9126839080288	119.873384156405	
1942000000	-13.5234019755034	33.0876008365074	-3.37081651648357	137.986543230554	-3.36114048453845	137.930427277904	-15.869512079744	119.864849870931	
1942500000	-13.4420202913441	33.8278101808682	-3.3722193645789	137.916831729025	-3.36252825367967	137.915655278811	-15.8436718822067	119.855511130036	
1943000000	-13.378715598634	34.7157523667828	-3.37605690064703	137.839524400825	-3.3706753344785	137.836337846241	-15.7766142437511	120.051204659485	
1943500000	-13.334693860339	35.8087090602586	-3.37738617948627	137.796645627163	-3.37594169353326	137.71541674063	-15.726743297819	119.970855196323	
1944000000	-13.2588297438801	36.9377671452724	-3.37627795572669	137.627300351316	-3.38799693937023	137.604341017663	-15.7097248902301	119.557340721799	
1944500000	-13.1580024455537	37.3591516502546	-3.38850044994968	137.486620338698	-3.38176014308857	137.513590688629	-15.645779212877	119.996584881682	
1945000000	-13.1194917242536	38.1090043347816	-3.38046489313742	137.400768266647	-3.38381290335139	137.462291663234	-15.582218672955	119.91793029114	
1945500000	-13.0959077782631	39.3413160589804	-3.39607587243465	137.341962545486	-3.38903701548556	137.323060514936	-15.5736012798975	119.241441887091	
1946000000	-12.9768353350132	40.1372112279872	-3.39777418092445	137.190585583945	-3.38787799251727	137.264484677752	-15.4887929835445	119.657014787645	
1946500000	-12.9547426165522	40.874428302674	-3.39950415853005	137.113061100931	-3.39738643178586	137.155081196641	-15.5144605366227	119.541206799842	
1947000000	-12.9087701369291	41.8145561254418	-3.40896185968773	137.046456530244	-3.40228143501586	137.047733114439	-15.4617048165279	119.062264990401	
1947500000	-12.8863106843515	42.6169405291847	-3.41373131917233	136.94381837232	-3.41486609668	136.974257870245	-15.442811405059	118.978932615291	
1948000000	-12.8123795510624	43.2087562814334	-3.4224299862678	136.832201781342	-3.4120770637395	136.923751934628	-15.4176115408275	118.867194745542	
1948500000	-12.7407115767196	44.4321503053927	-3.41808814685425	136.835328998016	-3.40790152382398	136.774044854404	-15.4387819542692	118.989655048105	
1949000000	-12.7153886243509	45.1686002716972	-3.42807727874532	136.700073998139	-3.4151377863434	136.640026994277	-15.3643797907059	118.542629624936	
1949500000	-12.6940552198829	45.8915127740532	-3.42647209530779	136.614106320118	-3.42995566300586	136.602138607432	-15.391850558635	118.581114919936	
1950000000	-12.667521412825	46.6563787844607	-3.4353261793706	136.531701031595	-3.42786814800785	136.545160200032	-15.3308265916449	118.246571016718	
1950500000	-12.6345075613376	47.7223846704997	-3.43371590950682	136.398100809203	-3.43534526804722	136.475862130892	-15.3259971147086	117.799970178911	
1951000000	-12.555987602375	48.8404688785542	-3.43060442151147	136.325980364777	-3.4380950879926	136.346312335572	-15.3553357933146	117.845746042265	
1951500000	-12.5373663536288	49.5011296177577	-3.44485773075202	136.21144664919	-3.44013425312281	136.191159803307	-15.3315717440077	117.848753697443	
1952000000	-12.4470768420497	50.6684001327134	-3.44914534302749	136.170316670236	-3.43979115253033	136.189032973214	-15.3725942346717	117.9689656828	
1952500000	-12.4418697821165	51.291036940528	-3.44908337887713	136.047858324552	-3.45185852424196	136.04270353181	-15.3908895045762	117.269153881797	
1953000000	-12.4490345967224	52.3002827242161	-3.46122863422303	136.021258372744	-3.45825057763147	136.038399590619	-15.3871002187225	117.401620141543	
1953500000	-12.3905288161497	53.2427580340542	-3.46097615727904	135.896923013355	-3.45247490738922	135.969280852424	-15.3823822939948	116.780861866571	
1954000000	-12.3657280394348	54.0967088709484	-3.4694259517404	135.757643547333	-3.45958143700747	135.85253652683	-15.4057652589488	116.631087392191	
1954500000	-12.326032869798	54.972756309418	-3.46583736581856	135.774261799117	-3.47049468181598	135.763111873428	-15.4562379059072	116.506295988056	
1955000000	-12.3595124261242	55.7722225071607	-3.48262152712451	135.678101183825	-3.47317231439645	135.67537507159	-15.4632733583954	116.431200618138	
1955500000	-12.3056095592364	56.8211216870214	-3.47844273850429	135.629287073022	-3.47910419789638	135.635577876513	-15.4969994526189	116.04687729801	
1956000000	-12.312953180799	57.7240183110741	-3.48532073545496	135.513940157371	-3.48064448489691	135.517550315908	-15.535657145051	115.382827375434	
1956500000	-12.2880307802981	58.3811688005606	-3.48775539708208	135.436548688344	-3.48785838477374	135.416185119578	-15.5334208174096	115.031658152559	
1957000000	-12.2875813868512	59.4079129017308	-3.49254813527886	135.33524461075	-3.48703870673124	135.394705904679	-15.5904568355303	114.933172194596	
1957500000	-12.2733466991341	60.3944444953296	-3.50036737451891	135.279735234791	-3.48788090994989	135.310606739937	-15.6356455194053	114.621176222	
1958000000	-12.2467492746328	61.430815013905	-3.48930000258305	135.145638781969	-3.50017327917772	135.200485991589	-15.6571469747679	114.397271988904	
1958500000	-12.2054794954699	62.1495842168696	-3.49728728314423	135.145033420884	-3.49948578179518	135.151694829489	-15.7212857503151	113.974485035372	
1959000000	-12.2257316899659	62.9279198867871	-3.51364517714013	135.022114093737	-3.50206177334024	135.03914155363	-15.7695769900377	113.844915249544	
1959500000	-12.2094366397335	63.7139099445914	-3.51642248404572	134.956082530013	-3.51477436894541	135.004517313245	-15.7849938447444	113.415041886545	
1960000000	-12.2169812336127	64.6863366263974	-3.51285543322136	134.882013234381	-3.50969557598551	134.984223624862	-15.8502021966268	113.511671592872	
1960500000	-12.1932095948253	65.8001437782962	-3.51599116088578	134.848782943549	-3.51582869051846	134.841629048664	-15.9683895493788	113.074833893353	
1961000000	-12.2171929459172	66.5670772202089	-3.52942008590804	134.72254907289	-3.51851584837089	134.799605210688	-16.0199415410895	112.610038259824	
1961500000	-12.1965761872742	67.6558931535847	-3.51651487890457	134.695991885923	-3.52424453350999	134.689932096204	-16.0704252915759	111.815680525828	
1962000000	-12.1867735965171	68.5472550953367	-3.52355227262125	134.621878667269	-3.52587409577255	134.687873143207	-16.1085300513292	111.939969543885	
1962500000	-12.2315185925192	69.4163104459622	-3.53332057209602	134.525503542699	-3.53853065278437	134.567805707271	-16.1730775017084	111.162695388995	
1963000000	-12.172887076624	70.3492537111261	-3.5477677911637	134.505550441325	-3.53442409934702	134.568492636564	-16.3049867149394	111.188332077909	
1963500000	-12.2063945095452	71.2554295846546	-3.53490494836076	134.452192131985	-3.55576574534884	134.424308276518	-16.3578186399979	110.553834365681	
1964000000	-12.2131019411481	72.2402055911164	-3.5491941687345	134.34235035903	-3.53697674333617	134.349509781132	-16.4284814935938	110.326550149329	
1964500000	-12.1949446174836	72.9157754221189	-3.55168589112061	134.315154432644	-3.54925742328091	134.275916786011	-16.5004874497781	110.063896620735	
1965000000	-12.2142492033299	74.0596510493824	-3.55628587554831	134.223552496521	-3.55341125088937	134.246366577707	-16.6205332323651	109.152547974786	
1965500000	-12.2519464827884	74.9428063311916	-3.56586914247209	134.15766398562	-3.55523833886814	134.18607004405	-16.6641015942825	109.025229352651	
1966000000	-12.2515680266045	75.7464259001779	-3.56165443330756	134.046813559554	-3.55503537089319	134.136181128899	-16.76881740708	108.667940603901	
1966500000	-12.2699375354489	76.7279511291258	-3.56763865419828	134.067024835556	-3.5680606642293	134.108250195326	-16.8597768732503	108.049632281083	
1967000000	-12.2464284669267	77.70387688323	-3.5710603883243	133.992959843442	-3.56820732475812	134.007947920643	-16.9731400762461	107.957208203221	
1967500000	-12.2962137464864	78.7519746274628	-3.56991133162429	133.955012824185	-3.5720630288494	133.906222971261	-17.0757832959638	107.355039618455	
1968000000	-12.260713480522	79.7054121081373	-3.5644459118455	133.838734056031	-3.56596037045013	133.927888259006	-17.2019367281333	107.131533347964	
1968500000	-12.3174705818747	80.5238615133869	-3.57934471306129	133.871690577143	-3.5825057902946	133.842560773926	-17.2687681298045	106.199757496823	
1969000000	-12.3646641472243	81.5659042792062	-3.58453873574291	133.733910882318	-3.58391631954215	133.783200804639	-17.3876473985762	106.170430739445	
1969500000	-12.3543553965559	82.5025136504879	-3.59453964756322	133.678679820883	-3.5738021584547	133.755119830611	-17.498375154671	105.746508863564	
1970000000	-12.3668402533596	83.3969110271588	-3.58023885522804	133.601664592885	-3.58626674261984	133.671046948096	-17.6638044095345	105.46371890111	
1970500000	-12.3897272343803	84.368578427245	-3.59723003168433	133.610486610783	-3.58762594967199	133.586289371016	-17.7032552699673	104.697676223029	
1971000000	-12.4182372626929	85.5351269593437	-3.58996942654104	133.53134679967	-3.59658949755067	133.557123360782	-17.820072282942	103.867853849888	
1971500000	-12.4579314166334	86.3071829608037	-3.60353473401895	133.465665371763	-3.59477271614307	133.566203766403	-17.9386774726402	103.44652049028	
1972000000	-12.4570765617008	87.0581730000306	-3.60355217182337	133.4132703742	-3.59730204517044	133.535562977825	-18.0684595947901	103.016943313408	
1972500000	-12.5185071851969	88.1247374059647	-3.6001316403617	133.370515842687	-3.60654047576663	133.429722183066	-18.1777852173705	102.898692405802	
1973000000	-12.5200914845095	89.3333304655946	-3.61033674164865	133.345240989243	-3.61062035375459	133.385915538611	-18.33525762173	102.284994191415	
1973500000	-12.5450342009955	90.2756241601144	-3.60607889461871	133.263240772505	-3.60592569819062	133.338580493913	-18.470303862245	101.4370821623	
1974000000	-12.6051612323556	91.1054613588326	-3.6075929612086	133.199297439597	-3.60906122576429	133.345459813984	-18.6133473530944	101.045252853283	
1974500000	-12.5883787135014	91.9820712825166	-3.60727128427367	133.177814930971	-3.61631814738234	133.197155612702	-18.8678758531548	100.441118505588	
1975000000	-12.6169899718947	93.3070566931013	-3.60515801207336	133.153771903184	-3.60734372948383	133.143635251934	-18.9374947734621	99.8130467984831	
1975500000	-12.6502351003134	94.257895340806	-3.61711564483701	133.091522193055	-3.61744740592432	133.185295408571	-19.0669992685286	99.1408583580786	
1976000000	-12.7556833555364	95.1926956780563	-3.62425202310097	133.072952492507	-3.60704186509434	133.170135203537	-19.1808573516003	98.5769587392803	
1976500000	-12.7743332095786	95.9655241698365	-3.62671549413395	133.038702954356	-3.6317092809511	133.043286256521	-19.3294668298924	98.0958859831417	
1977000000	-12.8106020213517	97.1104163921727	-3.62731566199768	132.94712505606	-3.63066162942814	133.011321520571	-19.4584123755955	97.3969570414873	
1977500000	-12.8122063514504	98.1576202156135	-3.62451713989068	132.96535981875	-3.63283140045246	132.962332978611	-19.6220901332527	96.7138081212499	
1978000000	-12.8724539250967	99.1582883441719	-3.63490532912563	132.837776782341	-3.6270331327385	132.872489804895	-19.7606918119782	96.2938033267881	
1978500000	-12.9227677989345	100.016376981119	-3.62248898562911	132.855725517303	-3.63402103550711	132.895676931783	-19.9498204801974	95.8841820622967	
1979000000	-12.9765656522816	101.159574378792	-3.63236757382424	132.786114815899	-3.63489419380439	132.836796549128	-20.1423485650214	95.355642820746	
1979500000	-12.9738051623991	101.985991830619	-3.63612259938673	132.805874145573	-3.62926084619796	132.770158390922	-20.342603900229	94.8235749123864	
1980000000	-13.039653437988	103.256140181976	-3.64959983765832	132.670547281262	-3.6384711767723	132.748929720377	-20.4910818384932	93.7285557833427	
1980500000	-13.1456738521569	103.954970353764	-3.63438499745021	132.652312384497	-3.63504008996163	132.767085835071	-20.552341348294	93.5863645488654	
1981000000	-13.1387632838572	105.30060738243	-3.63952065839301	132.621659747379	-3.64111392397774	132.664486166002	-20.8611547375629	92.5506461714689	
1981500000	-13.1539562243236	106.166587115893	-3.63968650926561	132.549103478968	-3.63943295996356	132.644400304125	-21.0425137986449	91.7317455837789	
1982000000	-13.2465286201761	107.194787417148	-3.644459991964	132.561094300435	-3.64335444235488	132.57338050748	-21.1212011859235	91.214097906555	
1982500000	-13.2576799470188	108.235807891116	-3.64121532663093	132.576004309159	-3.65359860601495	132.562036085843	-21.3812008983309	90.5600648332706	
1983000000	-13.3368376624165	109.107378734589	-3.64344230204597	132.47531377114	-3.63868197701864	132.516474661797	-21.4888192783134	89.8848578176559	
1983500000	-13.430960920838	110.159373592719	-3.64710512857812	132.405112626477	-3.6515993210704	132.491554228643	-21.6440870606039	89.7774290008235	
1984000000	-13.4361926719781	111.28076837412	-3.65671557344338	132.345318047961	-3.65163466437265	132.428012207085	-21.8570029774776	88.4512135572478	
1984500000	-13.5354322332998	112.383264668236	-3.6627571854562	132.364623857871	-3.65527636652755	132.404937193423	-22.0527769756091	87.6205836369783	
1985000000	-13.5228054133186	113.451887736018	-3.65604011371913	132.308222866771	-3.64780827557041	132.363282387469	-22.2794860845503	86.8912778280636	
1985500000	-13.6039613855414	114.365962950597	-3.64974758695013	132.303850863249	-3.6540124612722	132.316841374607	-22.4394935213103	86.28611001712	
1986000000	-13.6785540933292	115.509252463907	-3.6598278999479	132.24602476896	-3.6525440310678	132.280539507259	-22.6512862887999	85.6369958513552	
1986500000	-13.7966820108639	116.431211072361	-3.65817800109213	132.255234919178	-3.65263895795925	132.169383234855	-22.8326819088225	85.8678958331083	
1987000000	-13.8215690183391	117.278330635496	-3.66027176480766	132.154059450651	-3.64786063619927	132.258505025487	-23.0883230223551	85.1352198856252	
1987500000	-13.8832871925276	118.591942113851	-3.66566539431603	132.15747491748	-3.65300242082329	132.161214244441	-23.1229309696283	83.8791897537619	
1988000000	-13.9321651200759	119.845403247127	-3.65885698791183	132.121878422321	-3.65764756260294	132.120039779428	-23.4946270709559	82.8642969006405	
1988500000	-14.0053573573394	120.959696872016	-3.66302118696033	132.112533502173	-3.65828622064987	132.090290133895	-23.6249625945528	82.3398486498779	
1989000000	-14.0554137138259	121.65719104555	-3.65804808308921	132.053300919884	-3.65797617016541	132.068939702051	-23.9116337235678	81.9523787386384	
1989500000	-14.1757683927779	122.936556721044	-3.66417960826433	131.970456702466	-3.67229253146218	132.057777134961	-24.1130054505029	81.8479003458047	
1990000000	-14.2167444230397	124.141702019427	-3.65351020518208	131.955345981621	-3.66357847501872	131.984089102576	-24.2865991830397	80.0232566788572	
1990500000	-14.2761763817214	125.405991958501	-3.66173536208222	131.925719443529	-3.66375750298548	131.921212348483	-24.5369261991412	80.0786405435804	
1991000000	-14.3734404395111	126.151726535408	-3.66925241016982	131.865413645534	-3.65452930018707	131.921350460433	-24.6745181068239	79.5493638418132	
1991500000	-14.4510517474174	127.50761293536	-3.67173110372224	131.904612442941	-3.65668396101277	131.856726334064	-24.8985128713544	78.3883924621081	
1992000000	-14.5060180711945	128.666443943026	-3.66781518598595	131.785570234153	-3.67448453667511	131.856456891097	-25.1031661601084	77.936495408892	
1992500000	-14.6187939513694	129.555140666221	-3.66956415098201	131.767872531359	-3.66584704766812	131.821785863936	-25.4021930615802	77.908508459615	
1993000000	-14.6866005086277	130.670287871296	-3.67226815141208	131.677571715033	-3.66658366814399	131.788053919213	-25.5026666490295	77.264462049283	
1993500000	-14.78634207706	131.900561524459	-3.6777843891777	131.679396766497	-3.66996693620424	131.724573620788	-25.772866292987	76.392316711963	
1994000000	-14.8393861597927	132.902082797872	-3.67074836899354	131.656633221438	-3.67498987834416	131.671547900309	-26.0449679993657	77.0165371321723	
1994500000	-14.9207981112888	134.0137580384	-3.66908650453257	131.646135091019	-3.66966472445185	131.604083862733	-26.2903850079287	75.560241081212	
1995000000	-15.0035709821884	135.053627241844	-3.67627660823168	131.634740393576	-3.67035628288858	131.622296467286	-26.3399686773758	75.4803548220859	
1995500000	-15.1071492938036	136.58703605407	-3.67178732342803	131.579981672615	-3.67074587250105	131.575285010355	-26.8061494345322	75.2660218394689	
1996000000	-15.1634288226258	137.691327270167	-3.66215626936218	131.537510631691	-3.66166918879162	131.56568756381	-27.1622396719258	74.3816220171693	
1996500000	-15.2719708030977	138.741990571358	-3.67973587978196	131.498744425258	-3.66842148422704	131.473857976635	-27.1586116155857	75.4196902323347	
1997000000	-15.3919168966549	139.956527474858	-3.67324531995836	131.449769261346	-3.67553487652386	131.439009033549	-27.4763742232294	73.7135779801066	
1997500000	-15.4563681664913	140.748371966236	-3.67871730775061	131.440005307095	-3.67229473257027	131.408133089441	-27.7582199602374	74.6044900945626	
1998000000	-15.515663021566	142.230174126864	-3.6826465841203	131.384095160263	-3.66222109068215	131.397830555605	-28.0095459461738	73.3431262167752	
1998500000	-15.6567803080392	143.033678605888	-3.66713537410457	131.367266968227	-3.66479069444391	131.365220099353	-28.2218601893628	75.866037802648	
1999000000	-15.7117742589431	144.512162624895	-3.66801333079421	131.245586121032	-3.68407040188703	131.340042419327	-28.3598861577357	74.5310930903719	
1999500000	-15.838862669184	145.74078503316	-3.68004912647631	131.196278238888	-3.66312997384715	131.261485847246	-28.7216565611685	76.4623328123213	
2000000000	-15.942755118894	147.124479243644	-3.66814699902963	131.245320759406	-3.66571296451271	131.27007376971	-28.939688487122	76.2265271453844	
2000500000	-16.0181553227024	148.345857811929	-3.67373495355186	131.177585426603	-3.67637219317486	131.177592094213	-29.2955321210312	75.3261956006618	
2001000000	-16.1439131270896	149.077154605908	-3.67090569328788	131.116765804816	-3.67581189422638	131.108338231795	-29.4722546233771	77.9052087082271	
2001500000	-16.1957764039296	150.84331811906	-3.67564958985669	131.12665492337	-3.66815073235246	131.09620893198	-29.8891291462329	78.1433406462739	
2002000000	-16.3322749391485	151.613467380079	-3.66957014207074	131.049716977247	-3.66889422138557	131.031542736768	-30.1332449756924	79.5182159954604	
2002500000	-16.4338450936786	153.252874615832	-3.67124600300672	130.983614965396	-3.67688071106301	130.979856687036	-29.9432334291872	78.6695422017652	
2003000000	-16.4927384132614	154.23394626872	-3.6722264796042	130.960537483484	-3.67446898871893	130.934885842481	-30.7304527502615	80.8910139393649	
2003500000	-16.6424229703299	155.843992633704	-3.66994336032055	130.961304514142	-3.67324069941843	130.899976231865	-30.7894569112238	80.3757620622295	
2004000000	-16.8054441469882	156.756511065936	-3.6787042998451	130.892177522904	-3.66381458436613	130.869557327684	-31.0818994980744	85.2230461619526	
2004500000	-16.9120891653929	158.350767443904	-3.66660854847231	130.830180836036	-3.67640469426582	130.834196847878	-31.1589255124416	87.4325444623903	
2005000000	-16.9304055254636	159.409874938629	-3.66635109542185	130.820255442064	-3.6685040942883	130.796026138453	-31.452696548992	86.3518160978761	
2005500000	-17.0792868429794	160.996910219766	-3.68056896655828	130.722373488244	-3.67768282513549	130.801810801357	-31.4657466445673	90.0690107077016	
2006000000	-17.1925367739678	162.308461777342	-3.66948128449653	130.721763614456	-3.6615217238902	130.725655548415	-31.6426151709929	93.335999073033	
2006500000	-17.2414211415985	163.196765056808	-3.66528087177432	130.69997806339	-3.67859394631447	130.714555479202	-32.0430529398507	95.0255101115537	
2007000000	-17.3547588773038	164.573321399317	-3.67375590972658	130.605751434015	-3.66571895331094	130.65873056577	-32.1238825700953	97.0983940630933	
2007500000	-17.5346483661003	165.669408070107	-3.66733664247239	130.628761056856	-3.6641214869693	130.539659379991	-32.2207023621813	100.616194095459	
2008000000	-17.6138993066776	167.481277070532	-3.67262391093806	130.540525430849	-3.66416779403873	130.492557835883	-32.2958765609505	100.540426808586	
2008500000	-17.8111159211507	169.32023310239	-3.67220739909899	130.517414428391	-3.66407315299916	130.465587764472	-32.0488460749549	107.078967975779	
2009000000	-17.8802120413565	170.509895918729	-3.67880575142825	130.474358998586	-3.66199237372727	130.471036337124	-32.0593039133659	108.71632770861	
2009500000	-18.0063761300084	171.744657773482	-3.67184762850638	130.373911680263	-3.66858876716909	130.382450868762	-31.8593268096941	111.358390750456	
2010000000	-18.1173562051585	173.143045923872	-3.66779469179034	130.358062070672	-3.6722526144091	130.375410310003	-31.6065428758073	112.660661898057	
2010500000	-18.2005625252677	174.428082149274	-3.67647440998313	130.328550917719	-3.66616237233056	130.264822068871	-31.7432158015455	116.740419604829	
2011000000	-18.3381282787874	175.7948237763	-3.6664899580604	130.300902206959	-3.65621183211679	130.23741032079	-31.4393306777557	120.46341549291	
2011500000	-18.5041673562925	177.303393786236	-3.6727326625006	130.196473183385	-3.66383140008018	130.195435078469	-31.3696589186307	123.267347814794	
2012000000	-18.6408378827964	178.735151638768	-3.67011063872631	130.214035535056	-3.65901222481343	130.093625796758	-31.166271573113	125.467691762813	
2012500000	-18.776049461026	-179.782184986845	-3.66603079353254	130.11484236479	-3.66327738956997	130.118811148867	-30.6521644689372	127.642669003144	
2013000000	-18.8798019216073	-178.103951695443	-3.66899153747235	130.067703292492	-3.66595138437195	130.045165224198	-30.3872352369643	130.178608767059	
2013500000	-18.9190882643805	-176.731695434675	-3.65839957632737	130.035962054045	-3.66427501075092	130.027966228803	-30.3759213689582	131.105617249422	
2014000000	-19.0935933652832	-175.244356255908	-3.67078624403415	129.99151454469	-3.66389106669607	129.969749345206	-30.040618592456	133.71300435423	
2014500000	-19.1561160501468	-174.309755114372	-3.65971497480317	129.921039568154	-3.66846207408799	129.819299407312	-29.8355950145001	134.651871526921	
2015000000	-19.438932561311	-172.513393888103	-3.66752695747379	129.850731603558	-3.66662345190701	129.810644088172	-29.0938761453575	138.122944835277	
2015500000	-19.5448973753396	-170.986772778814	-3.66034396096025	129.78296394203	-3.65572646625956	129.745422318626	-28.9908702878623	138.030524794331	
2016000000	-19.5993410499581	-169.143963725407	-3.66531787025157	129.765737451377	-3.65047851811885	129.781049601626	-28.4355773043263	138.560216648207	
2016500000	-19.8022554714087	-167.528563539795	-3.66164053359179	129.694732965917	-3.65785772061775	129.736428639309	-28.2422554919928	140.866891516941	
2017000000	-19.9413340909402	-166.326929510612	-3.66198558675986	129.608226121473	-3.66008030586822	129.69162233519	-28.019883578943	142.39153030461	
2017500000	-20.0376918305313	-164.526903149958	-3.66639858825064	129.607850965739	-3.65223987853944	129.654092655893	-27.7188586887304	142.887438740581	
2018000000	-20.1632755875866	-161.992753185563	-3.66913635239548	129.539782334811	-3.65520742572934	129.579401632344	-27.2498024912575	142.942380948091	
2018500000	-20.3038922940935	-161.125128069605	-3.66672011356033	129.482048682181	-3.66446721818918	129.44532497185	-27.0754448714984	144.909057016069	
2019000000	-20.5011812709512	-159.533574964422	-3.66047361298981	129.467649442401	-3.65739368041653	129.440563619121	-26.8180325475899	144.337028709561	
2019500000	-20.6816329077343	-158.083826673968	-3.66501897033217	129.385777595112	-3.65800452844765	129.381177414983	-26.4159836274673	146.592156595382	
2020000000	-20.6619918112905	-156.462039093292	-3.66378829500763	129.328720193425	-3.65188430693922	129.342551586263	-26.1144255864076	146.920841733533	
2020500000	-20.8099727677798	-154.737242123606	-3.66220527790273	129.249196897944	-3.6582858772578	129.263116844859	-25.929330972752	147.383199504135	
2021000000	-20.8967754709985	-153.456771553868	-3.66211265710683	129.200903280018	-3.6566241587349	129.183278813831	-25.7445186197299	147.999469301123	
2021500000	-21.1763121027596	-150.743839137989	-3.66083532399062	129.180378569311	-3.65657558045284	129.154067169891	-25.2866953612331	147.734784902393	
2022000000	-21.2061700430671	-149.520590836901	-3.64647538429429	129.106962696773	-3.67367521460787	129.075585193358	-25.0926356657221	147.940123373382	
2022500000	-21.4381389547351	-147.217255452041	-3.66236163715373	129.08831636733	-3.65846837029743	129.057424614787	-24.7504841181769	149.338229211752	
2023000000	-21.4977049431191	-145.768739915826	-3.66177645362535	129.001055754978	-3.6676444495028	128.935243833582	-24.485467634994	149.018757669441	
2023500000	-21.6316968121782	-143.824929105329	-3.65582786439375	128.936234316874	-3.66877023278983	128.857909028404	-24.2604336508508	149.491973972648	
2024000000	-21.8438017626086	-141.991590661058	-3.65981712404738	128.960370026621	-3.65888412411885	128.89001925578	-23.9728158779259	149.956390209167	
2024500000	-22.0065077097948	-139.465018614303	-3.66391790773299	128.85383905004	-3.66038274220331	128.829677115174	-23.7818828027442	149.630084562091	
2025000000	-22.0381985489604	-137.729756458281	-3.66393118404489	128.759797618195	-3.65532708120484	128.750320694184	-23.5868872859912	148.381297347737	
2025500000	-22.3206548278298	-136.192145575045	-3.66228009131028	128.766059391696	-3.65347961606176	128.709893405934	-23.3707085387634	150.128967072335	
2026000000	-22.3847378810913	-134.727713383449	-3.65182044097209	128.629914782128	-3.66233732441605	128.633921463261	-23.2067227078757	149.85060744917	
2026500000	-22.4930480188844	-132.488605686102	-3.66472845304592	128.564122445577	-3.66320536030854	128.562258529987	-22.8972084853319	150.451284358339	
2027000000	-22.6260689288739	-130.240027967335	-3.65920042019867	128.521593270333	-3.65307635553485	128.4819611629	-22.6230321298886	150.42191780694	
2027500000	-22.8933256384437	-128.044489775855	-3.66071834503068	128.491890625594	-3.66001566966458	128.427456422157	-22.4865295177398	150.370393680459	
2028000000	-22.920505962042	-126.7519728522	-3.65481605624703	128.404598113018	-3.66362868280579	128.420588978193	-22.3614245327785	150.745514958054	
2028500000	-23.0848407049178	-124.044948990341	-3.65760562136929	128.327076538753	-3.65301003537159	128.307011928105	-22.0935135545646	150.146551629587	
2029000000	-23.2514544578418	-122.891857940637	-3.66889533456964	128.23963331314	-3.65672204794731	128.31044271427	-21.9807413321019	150.427952215442	
2029500000	-23.3025219886495	-120.055558733933	-3.65746321751974	128.220397612918	-3.65700906323632	128.194814384477	-21.8100767463349	150.018636661155	
2030000000	-23.4671271677017	-118.082408779829	-3.66127467729243	128.136518302768	-3.66156324208246	128.078010085736	-21.5765185059681	149.910294831377	
2030500000	-23.5845364725133	-115.767458247866	-3.66117379600158	128.082986353273	-3.65413504786621	128.083435083226	-21.4374508645348	150.344576422628	
2031000000	-23.7835139605025	-114.641822007631	-3.65574485278437	128.01691504701	-3.66084701584561	128.038075154426	-21.408674859909	150.01729775812	
2031500000	-23.9732012116459	-111.595394142858	-3.66726746484614	128.008183887271	-3.65703815404541	127.951786631435	-21.1196788951846	150.352764819193	
2032000000	-23.9598182026016	-109.213056292544	-3.66607014502653	127.899071914859	-3.6527249112884	127.929150311715	-21.0144826894973	150.316497670317	
2032500000	-24.1851481030103	-107.019896699074	-3.66347221298294	127.779686580708	-3.6568081826854	127.837538476014	-20.8231283295378	150.119420976948	
2033000000	-24.2073692717748	-105.071606915805	-3.66468799958468	127.766930814871	-3.65605897667738	127.77600333271	-20.7553857977402	150.642876294498	
2033500000	-24.3735117768175	-102.281050463945	-3.66471728505933	127.707271386667	-3.66508604215764	127.654967444062	-20.5277837326007	150.417794285824	
2034000000	-24.4335183604275	-100.228294567044	-3.66378128259259	127.619551967176	-3.65731070621967	127.635514034443	-20.4351403272631	149.723053157323	
2034500000	-24.6894219493808	-98.3021068151685	-3.66261302104958	127.551906438054	-3.66537521007133	127.557579996385	-20.3903316347859	149.864926303706	
2035000000	-24.8144658006805	-95.1064906234906	-3.65808718575325	127.491131552513	-3.66988594532018	127.46704945793	-20.2702716459769	150.05529541776	
2035500000	-24.7858392787425	-93.6923585930334	-3.66402843145519	127.389341247581	-3.66171463709232	127.416093050615	-20.0338925554275	149.340375870853	
2036000000	-25.044892805749	-91.6192420103729	-3.66290242446897	127.26759395876	-3.65707908209308	127.376747376049	-20.0606722424878	149.642571149508	
2036500000	-25.1399825029791	-89.420861842272	-3.6551782668713	127.29040603537	-3.66051994684776	127.248780090737	-19.8797752423368	149.637499775697	
2037000000	-25.0944393687205	-86.1489747140985	-3.65799311027856	127.24569242854	-3.6640925389638	127.171780469432	-19.7892229353542	149.723264431353	
2037500000	-25.3521617872051	-83.7558331624796	-3.66713371444892	127.193156920961	-3.66218774623985	127.171200449726	-19.6643840971406	148.540110640879	
2038000000	-25.4643302958489	-81.5283204134649	-3.66315877751548	127.083338715234	-3.67468804671223	127.100376390407	-19.6069154488242	149.117208452969	
2038500000	-25.4360335684429	-78.5430152421398	-3.6651732634234	127.001736963037	-3.66823715348231	126.993496537868	-19.5378306047331	149.382637087437	
2039000000	-25.5746433050256	-75.8149047069727	-3.66665286340909	126.923627069207	-3.66432666655964	126.905799112	-19.385200074036	148.666887678189	
2039500000	-25.5559637430247	-73.3740279659763	-3.66517647486569	126.822638349857	-3.67124171303015	126.799636781997	-19.3456668878064	148.483292716612	
2040000000	-25.5186837914536	-70.6253800305163	-3.67194828015964	126.794843746518	-3.66133845400849	126.732495622284	-19.2013389402646	148.253358888926	
2040500000	-25.7114741998424	-68.6591711206304	-3.66992689170492	126.801491706595	-3.66944705764802	126.737491452902	-19.1882034598841	148.18781942527	
2041000000	-25.8362304850953	-66.2660542749124	-3.66863943762608	126.646999381399	-3.66676239097635	126.635376476357	-19.117655008687	148.146081210638	
2041500000	-25.844016253774	-63.4499918083809	-3.68231750641653	126.575361945306	-3.66396983830841	126.536188285475	-19.0344714066461	147.896520848576	
2042000000	-25.9786642359168	-60.8618057505172	-3.6680983973381	126.588044876293	-3.66697566389963	126.515898541131	-19.0441335185663	148.147982799642	
2042500000	-26.026832065268	-57.4856893782682	-3.65891377846597	126.387226940781	-3.67028710140644	126.460258918978	-18.9258971856472	148.077745862785	
2043000000	-26.1878775113956	-54.5448788067614	-3.67029133528921	126.339062571263	-3.67045189662611	126.388718125984	-18.9154190007383	148.043027952086	
2043500000	-26.0458164400432	-53.6968053940737	-3.66997143762421	126.3060271165	-3.66556080617068	126.268891866182	-18.8456350786651	147.343062242641	
2044000000	-26.0677365351699	-49.9157324086604	-3.67065480039616	126.242938062292	-3.66631469100304	126.21498204145	-18.745428236419	147.868419763836	
2044500000	-26.1674645455176	-47.282309211668	-3.67965547814664	126.240275561112	-3.67607472137928	126.137255727319	-18.7202593478517	147.770743562099	
2045000000	-26.3056584892933	-44.7669712217981	-3.67817543555229	126.074699050358	-3.674463112261	126.008009770431	-18.7513735124352	147.30453261784	
2045500000	-26.3217902825637	-42.2150718010786	-3.67960007886853	125.99135403756	-3.67480717502809	126.010183884094	-18.6344615882435	147.387894606039	
2046000000	-26.3082217244838	-38.530473071716	-3.67673570973504	125.972118891026	-3.67999538062731	125.902383563677	-18.6494421830647	147.380378194746	
2046500000	-26.2527808897553	-36.3010768009496	-3.67767645119141	125.839399289477	-3.67630599884111	125.866725893217	-18.6149364538073	147.306036772367	
2047000000	-26.4203964731043	-33.8434833082881	-3.67134649728983	125.793966397635	-3.68509633365652	125.804195060451	-18.6084204884409	147.244034863273	
2047500000	-26.3389181694597	-31.2338955562979	-3.67600032708927	125.694264180697	-3.67957857088365	125.691127073697	-18.5855308220524	146.827720905455	
2048000000	-26.3223579493082	-28.1979617295966	-3.68251148624791	125.638711738716	-3.67271129896636	125.672331521692	-18.6092105966004	147.103911608972	
2048500000	-26.2132263711038	-25.432040124451	-3.67509515692575	125.524360077755	-3.67255850802406	125.492836783236	-18.5504612608146	146.867002875055	
2049000000	-26.2159800261038	-22.5182772005699	-3.67992267423059	125.50921514312	-3.68580722783487	125.471059911411	-18.569150064314	146.628927330388	
2049500000	-26.3298855387798	-20.491401960144	-3.68410382503697	125.407528641765	-3.67731797627522	125.440331919148	-18.6225498037595	147.107101486846	
2050000000	-26.1706721278213	-17.5351342222705	-3.6745911003072	125.301643772995	-3.67626303923494	125.309215876626	-18.5332131337125	146.313993934747	
2050500000	-26.255535062764	-14.403109655624	-3.6810909632244	125.288784775834	-3.68611709739572	125.214934158801	-18.6388843832141	146.348121596846	
2051000000	-26.118926259807	-12.0321204554247	-3.69162386523953	125.15820051299	-3.67882806159344	125.204379035522	-18.6337550734277	146.269498941042	
2051500000	-26.0919963727976	-9.58205961516978	-3.67841472424893	125.085911939615	-3.67640407195239	125.052308954506	-18.6211081145937	146.633988209846	
2052000000	-26.0386534761554	-7.40195427623044	-3.68718166070536	124.978157220991	-3.69011865474011	124.995936157888	-18.6651846911008	146.372176515543	
2052500000	-25.8908765887945	-4.7102975583361	-3.69205586111623	124.880914179099	-3.68763841997147	124.986165150247	-18.6692478765116	146.276437362871	
2053000000	-25.9232156038455	-1.61172155497502	-3.67710352885923	124.836827364646	-3.68618669790567	124.856617252616	-18.6963394198942	145.923272027318	
2053500000	-25.8141643036224	-0.12906836493016	-3.69187456944733	124.77467215377	-3.68707604356057	124.783207585805	-18.7542704405577	146.144234399537	
2054000000	-25.7299246766027	2.56158132808859	-3.69586205742434	124.744691435392	-3.68500418363896	124.72431465893	-18.7351452878718	145.931581278032	
2054500000	-25.6687703575178	5.8704317725387	-3.68402472109469	124.613441994782	-3.69140924427657	124.660403600664	-18.7994146538765	146.088636549506	
2055000000	-25.6579123709988	8.50699815983038	-3.68929679760121	124.550908221112	-3.68903818469042	124.506626045788	-18.8605939729702	145.64354645099	
2055500000	-25.6245701842073	11.0700377701081	-3.68084707142554	124.548753937795	-3.69045885928071	124.454618739232	-18.9013493351388	145.924010943592	
2056000000	-25.4531150363414	12.7374536532645	-3.69143512004099	124.422311707476	-3.69123625349189	124.436102945859	-18.9880746944182	145.639871091053	
2056500000	-25.33196039227	14.9026770074848	-3.68537901200235	124.364922572223	-3.69093125868597	124.272701207909	-18.9417838790689	145.773571112825	
2057000000	-25.2563569630258	17.7894978323184	-3.70095290093849	124.296861124754	-3.68687490587646	124.231147700507	-19.1000795977859	145.250154999396	
2057500000	-25.1977287666079	19.6185036671065	-3.6888084901519	124.121281829992	-3.69886422363882	124.158031929722	-19.1309499560539	146.184375744527	
2058000000	-25.0200301669944	22.8902422322845	-3.6946599367627	124.051637107129	-3.69149574749676	124.109447240792	-19.1662657252088	146.063953993981	
2058500000	-25.0532690191123	24.8818982478305	-3.69266470114802	124.048874389413	-3.69061325134671	124.035191050904	-19.3123443236461	145.173753423531	
2059000000	-24.8812054708796	26.6710192367591	-3.69464261357784	123.95827000445	-3.68445006589411	123.919821426882	-19.3219788492627	146.277771184127	
2059500000	-24.8761655324333	30.1177236435055	-3.68673793852803	123.859912166737	-3.70419187220037	123.926468504042	-19.4944891790486	145.748391849068	
2060000000	-24.6662314638362	31.4710030442133	-3.6941571336806	123.77513396523	-3.6977994538751	123.78108105182	-19.5172120442293	145.823534322089	
2060500000	-24.6077003408161	32.8685626386238	-3.69162688803442	123.680005768587	-3.69793259588777	123.703372270659	-19.5479140998942	145.647132021936	
2061000000	-24.5350151099563	34.9535826098085	-3.6922116495116	123.579476100212	-3.69745424532781	123.680092539688	-19.7167117114878	145.691608742518	
2061500000	-24.3377870457046	37.9763996088626	-3.69535507475011	123.592632681666	-3.70088885500551	123.600455919644	-19.8462880721893	145.424302337663	
2062000000	-24.2537424264812	40.9984082508338	-3.69966208030495	123.494405762528	-3.69082391724756	123.508706653683	-19.9622876256962	146.158066611671	
2062500000	-24.0948942652073	41.1188237031739	-3.69617356657569	123.412538911809	-3.70396356119798	123.438005355676	-20.0578046186149	145.51618385797	
2063000000	-24.0811728968548	44.0278933061544	-3.70539401614882	123.357057216352	-3.70162167307545	123.34539380243	-20.1175531193181	145.573510401286	
2063500000	-23.9510214214212	45.4868897222035	-3.70802537307009	123.306318593037	-3.70295320578196	123.299045046564	-20.2227353632357	145.772930200958	
2064000000	-23.8908801219546	48.5043354124058	-3.69691040362533	123.201644693089	-3.69655108098608	123.139333954683	-20.3556745323495	146.211062582703	
2064500000	-23.6255894805721	50.1650117123943	-3.71121871158418	123.121529171448	-3.70369143471849	123.180474223933	-20.4434964477226	146.264352321587	
2065000000	-23.5843204063777	51.1784868331454	-3.71428164829439	123.004015610184	-3.70384017497775	123.089591262768	-20.5940053315946	146.885163876651	
2065500000	-23.3421225584474	54.529013125521	-3.70749815798049	122.942513441924	-3.69883936107874	122.991420321551	-20.8110288767103	146.801605100099	
2066000000	-23.2747995617091	56.2111881864548	-3.70495139526923	122.853227695467	-3.70428446514673	122.873473629718	-20.918262497693	146.448178624616	
2066500000	-23.1701077307557	58.1080978256605	-3.70804246758758	122.768158276621	-3.70449274187797	122.7808433514	-21.0777156002026	146.950337247131	
2067000000	-23.0140781083311	59.3261642786406	-3.70611214207034	122.652847777917	-3.70707662597939	122.752767714772	-21.2125097022978	147.264780357968	
2067500000	-22.9888016908834	60.8760827548983	-3.71031064821502	122.62210042864	-3.70974342831975	122.68226980922	-21.3176533386857	147.387478141739	
2068000000	-22.8624863584403	63.5039264325836	-3.71046158014502	122.546076587988	-3.71555702540483	122.580515316695	-21.5831073556348	147.461184079299	
2068500000	-22.7209571769974	65.7068637343251	-3.7113192654931	122.450061909305	-3.69919577711667	122.512028998107	-21.625702644153	147.912619427174	
2069000000	-22.6317602236781	67.3535165833575	-3.71732702331806	122.396727559279	-3.70197012269733	122.382187899743	-21.8276684824876	148.243919956966	
2069500000	-22.4414274554023	68.6415702560974	-3.71037019067489	122.328587311612	-3.71821312626289	122.357968821857	-21.8891348099679	148.921037240957	
2070000000	-22.2471961073885	70.4408666060398	-3.7199909450251	122.214609185854	-3.71028159131328	122.339640037135	-22.1277628729814	148.742617239164	
2070500000	-22.2339695037681	72.4178067457876	-3.7184560721358	122.180985786277	-3.71365995457356	122.213443062503	-22.1670215310361	149.019451196518	
2071000000	-22.0983027195491	74.1599710835615	-3.71551239229995	122.094487279381	-3.70956192745985	122.146643775343	-22.4597880495474	149.002153993801	
2071500000	-21.9417310633485	76.1758403973532	-3.72406622484279	122.08607719656	-3.70345501533964	122.073117206804	-22.6546733554797	149.556565209089	
2072000000	-21.88501678449	77.1823398892215	-3.7141919444055	121.933401260686	-3.70987916624398	122.014702504876	-22.8193337984017	150.302724403484	
2072500000	-21.743150872029	79.4083319463813	-3.71218437110175	121.904338488334	-3.71484222595637	121.914742931575	-23.0281137241592	150.967758548562	
2073000000	-21.5796457529974	80.7483960845839	-3.71926834237191	121.817325685548	-3.71485393796048	121.886173166059	-23.1813329714074	151.237112019664	
2073500000	-21.5352953075048	82.9038301569816	-3.71618525019001	121.782975535106	-3.72078095672009	121.780494589866	-23.4190101171516	151.431772497268	
2074000000	-21.2668951726755	83.569600637922	-3.72366093232008	121.646155033361	-3.71563321205196	121.697392381193	-23.5965010954131	152.21201682533	
2074500000	-21.3003834176831	85.2811282475598	-3.71970318849031	121.591803728007	-3.71419039646487	121.633517883091	-23.8301269701028	152.949203385707	
2075000000	-21.1369145548998	86.6039106073561	-3.71800070020097	121.526786917938	-3.72326727589741	121.529421885539	-24.0580359646836	153.544201337363	
2075500000	-20.9943563513176	88.3378452400062	-3.72373899395827	121.456979674351	-3.70759451951687	121.472049450012	-24.2247801161766	155.699691334376	
2076000000	-20.936427022802	90.1086042015715	-3.72317141200027	121.404374288685	-3.72266535927722	121.451235615113	-24.4763886919761	155.953616482218	
2076500000	-20.8471833079422	91.4840161533765	-3.72235028816071	121.332355499836	-3.7232717240453	121.391697470774	-24.6641328582524	155.580436673239	
2077000000	-20.7369838359599	93.0431666134628	-3.71959215688369	121.196197522491	-3.71529902394287	121.350318886059	-24.9042622667451	157.29027913426	
2077500000	-20.532470717323	95.0324320400173	-3.72274254091707	121.164764528354	-3.72560603770787	121.17805926317	-25.1937474029213	159.498648863302	
2078000000	-20.4108627519607	96.2368296144877	-3.72867778912581	121.107192250048	-3.72474348957803	121.089733489408	-25.4362399385953	159.474871548767	
2078500000	-20.439237551303	97.5124815195096	-3.72864506284161	121.008826478384	-3.72003457822313	121.039648675049	-25.4603782864555	159.918147551772	
2079000000	-20.3265528542689	98.4627136975316	-3.7211402049125	120.906107908502	-3.71830448896376	120.977266665103	-25.7158597537337	161.054421764256	
2079500000	-20.1987740215413	100.700585211004	-3.72610166953246	120.864278982627	-3.72068743005704	120.910556452608	-26.1158938414884	162.404199445868	
2080000000	-20.0652212675245	101.150079291949	-3.73422773230872	120.780859570207	-3.72085981980318	120.774018483916	-26.184588316684	164.457669929236	
2080500000	-19.9659776414922	103.45280218224	-3.72657338913582	120.737481716721	-3.72362969088519	120.816455187668	-26.4208145273526	165.126910882771	
2081000000	-19.85290841589	104.368259687197	-3.72525499814312	120.649584744956	-3.72551447544887	120.707139196078	-26.549372534372	166.556937311405	
2081500000	-19.7151458341358	106.499799863839	-3.73707513752155	120.57537656097	-3.73451637114828	120.633583037419	-26.8429648995043	168.523957134794	
2082000000	-19.6058881696443	107.205687945158	-3.73337726819966	120.530852805734	-3.72182472822083	120.530799548475	-27.1669594875872	170.473477184508	
2082500000	-19.5133616037797	108.410186097272	-3.72616703320989	120.442482742625	-3.72921041063819	120.479109955226	-27.1439957995274	172.382417407847	
2083000000	-19.4376927329624	109.868034908598	-3.72226542219207	120.418321897705	-3.72570928325102	120.469762013966	-27.128641277846	173.693079085116	
2083500000	-19.4005145419672	111.607886767902	-3.73559504967833	120.284864711371	-3.73310106160235	120.374469952905	-27.6233164944617	174.710073743869	
2084000000	-19.2619082613001	112.350133270968	-3.73799699878801	120.266085405141	-3.73744803630344	120.310086562253	-27.5563752775075	178.079555224535	
2084500000	-19.1517661662405	113.716533011588	-3.74060851918455	120.190052533979	-3.72935068094463	120.209847326942	-27.7784314260629	179.321978025236	
2085000000	-19.0549552880154	115.420762531013	-3.73660659140416	120.132945401934	-3.73551797091193	120.215786950863	-27.7224523600317	-178.982532464996	
2085500000	-18.9729994143615	116.302206128249	-3.73535545749424	120.081518653909	-3.74134852679517	120.054923427414	-27.7319008312851	-176.80161481548	
2086000000	-18.8333021631505	118.242955004641	-3.72997921416801	119.95179876127	-3.73578272436428	120.082913988468	-28.1622183163187	-174.751879017084	
2086500000	-18.8061307779273	119.033428450783	-3.74510935707122	119.880961606315	-3.73897639623122	119.967880718674	-28.1554276803722	-171.267874563055	
2087000000	-18.6702660011801	120.430795776909	-3.73536365717431	119.832007102687	-3.74048727775128	119.942074744471	-28.1967769876523	-170.932549584813	
2087500000	-18.5693280586685	121.626206116189	-3.74175302105868	119.7227009513	-3.72518282484173	119.797454585044	-28.0558988276824	-167.148213670849	
2088000000	-18.5614777362238	123.137944779103	-3.74314944001989	119.745880997368	-3.73231065679126	119.763730114139	-28.1643621102332	-167.829384307194	
2088500000	-18.4521122685924	124.054318277197	-3.74292477556882	119.6545053236	-3.74559754745952	119.634608575172	-28.1330709542341	-165.739896718305	
2089000000	-18.3438447505419	125.253907679432	-3.75195327032335	119.614852744866	-3.73294461847804	119.653258093753	-28.2551377950954	-163.011774193488	
2089500000	-18.2220857088486	126.421623921887	-3.74231436720965	119.547357085682	-3.74028120311358	119.562522622523	-28.0606319684281	-161.049775670083	
2090000000	-18.1028069372017	127.461058157563	-3.75013448777438	119.429849178091	-3.73840809533115	119.480330387951	-27.8724650250305	-158.860916358854	
2090500000	-18.1618863612132	128.879494694575	-3.7386600367071	119.352764065637	-3.74042252697549	119.439567182248	-27.9777369836395	-156.590121158506	
2091000000	-18.0459005651951	129.432285742781	-3.74715405383491	119.301433330477	-3.74674481573171	119.352061874846	-27.6509959781177	-155.68052410644	
2091500000	-17.9502651779244	130.981600049744	-3.74303270845425	119.328075481983	-3.74436682696503	119.344092261278	-27.5253916651955	-153.899039456786	
2092000000	-17.8862531692181	132.29608645246	-3.75598104486354	119.215930456868	-3.73731203106678	119.253545531688	-27.751675360706	-152.036180843794	
2092500000	-17.7696396281772	133.43946189896	-3.74527392116077	119.147201645832	-3.7469456908322	119.154534639136	-27.4239059019855	-151.561673850606	
2093000000	-17.6795897606544	134.414751335108	-3.75305352833453	119.163187512494	-3.74793701950944	119.129625108522	-27.231447438019	-149.575026591145	
2093500000	-17.621317512355	135.206900017446	-3.75230357699249	119.022153432513	-3.75412331636381	119.106110059625	-27.1441434712929	-149.293983748338	
2094000000	-17.569241636697	136.826213180286	-3.74467984176122	118.881159580556	-3.7552071813178	119.00614408041	-26.9166045371344	-147.847528709576	
2094500000	-17.5360098576932	137.826887304409	-3.76262794842928	118.919660078205	-3.76202145642277	118.914749804629	-26.8501752841593	-147.149690248552	
2095000000	-17.4305775272518	138.765910116045	-3.75331402373119	118.808587097025	-3.75230893455366	118.846076358464	-26.7814560544972	-145.756320526759	
2095500000	-17.2997157237282	140.151623806986	-3.75289225287898	118.784172178484	-3.7496922585338	118.791835410833	-26.498764188867	-144.633426998309	
2096000000	-17.245001278446	141.410321567524	-3.76357376481888	118.688744892205	-3.74869042417668	118.725247709324	-26.3297575167807	-144.078299937428	
2096500000	-17.2273854120972	142.342744990686	-3.75324382254885	118.664226361303	-3.74959407759258	118.667857026431	-26.2982981684955	-143.407322132736	
2097000000	-17.0992723954742	143.625103181542	-3.76108806014302	118.558505787045	-3.75869776317452	118.63832595364	-26.1484882507618	-143.671658728989	
2097500000	-17.0215854544189	144.365589748677	-3.75839806055826	118.512132700223	-3.76557059902497	118.557412471519	-25.9128269601304	-142.081105001423	
2098000000	-17.0122338719984	145.662375830237	-3.75807833642979	118.429449718091	-3.75774267577069	118.482506392675	-25.9158316339338	-142.738691556254	
2098500000	-16.928652131921	146.582904671163	-3.75758036587058	118.387685965515	-3.75665517771981	118.395024987018	-25.7095455189398	-141.787430404423	
2099000000	-16.8771644086656	147.48492039313	-3.76369768800197	118.310285816893	-3.75553760816323	118.388426849846	-25.4425568833693	-141.077428327726	
2099500000	-16.7985309816815	148.377781923225	-3.75781710376115	118.270611612485	-3.75549700534957	118.244045260053	-25.3609123081671	-140.957020610142	
2100000000	-16.7524495224846	150.183136101999	-3.76265473663306	118.248873338837	-3.75474330440549	118.258234289102	-25.2283332814998	-140.874806522083	
2100500000	-16.6741352144318	151.024952979125	-3.77357853723665	118.171151757112	-3.77256501331851	118.222915621984	-25.0584889926444	-140.175689159658	
2101000000	-16.6269655093749	151.865462732685	-3.76523823235853	118.156529989568	-3.76380320236999	118.169123455529	-24.8751990778567	-140.411417363383	
2101500000	-16.548698248128	153.420266265069	-3.76318079197605	118.13993406869	-3.76587371780859	118.101998103602	-24.7427647531195	-139.988283212258	
2102000000	-16.4830852816228	153.954830568831	-3.76891840925338	118.009588866665	-3.77170941697204	117.958901437674	-24.6139177394745	-140.609891809612	
2102500000	-16.4713381219718	155.298441085443	-3.77122616946131	117.914229594997	-3.77159986104686	117.939971361501	-24.5341207080058	-140.067691250434	
2103000000	-16.4097498166274	155.906546188373	-3.76852768339177	117.892167498389	-3.76562114288937	117.878018554456	-24.3327058576822	-141.007254668882	
2103500000	-16.3502739560552	157.243036283735	-3.76547591128201	117.841365745888	-3.76495453176092	117.830592786625	-24.0763533101731	-141.338540270156	
2104000000	-16.3196976683397	158.358481686796	-3.76745201168	117.802340259833	-3.77080206047678	117.779071469127	-24.0982033198974	-141.354036686824	
2104500000	-16.2627923464741	158.754391055051	-3.78057428707647	117.748019711355	-3.7823257205477	117.729347744887	-23.8470833728697	-141.700317972941	
2105000000	-16.1734773721572	160.104734802691	-3.76763288354397	117.659192185408	-3.76734611851784	117.676740459357	-23.7567620580702	-141.52980633105	
2105500000	-16.1401916483044	161.009221609978	-3.7724424536937	117.654230721	-3.77747298835335	117.634150997065	-23.6912509181692	-142.367512935341	
2106000000	-16.110335980193	162.326328805909	-3.76218472588495	117.585836606795	-3.77491365701622	117.611715385245	-23.5659795090028	-141.87250929181	
2106500000	-16.0533766010784	163.329680764041	-3.76932361770163	117.511457080759	-3.77692880249333	117.473838772584	-23.3503480621108	-143.526355533293	
2107000000	-15.9985599481043	164.296904763665	-3.77579338401228	117.436471291249	-3.76628676923884	117.44396526634	-23.2003405471674	-142.06587088905	
2107500000	-15.9325381810276	164.80704481878	-3.7788987919913	117.42892649344	-3.77237018325269	117.414709042451	-22.968830481417	-142.806702915068	
2108000000	-15.90598354739	166.20956587841	-3.77936358625544	117.408201206087	-3.78664702131563	117.383964059432	-22.9071454596924	-144.321525370014	
2108500000	-15.8633851382539	166.94478355463	-3.77251838027636	117.273318689648	-3.77619710853884	117.323943213812	-22.9005746679373	-143.534544036942	
2109000000	-15.8310802821193	168.059691442271	-3.77334961620798	117.261476348991	-3.77887742677416	117.316044365587	-22.6477003239755	-144.660266093312	
2109500000	-15.8036552365493	168.705901712713	-3.7848523706704	117.205133898236	-3.7837596517922	117.211194725385	-22.4993224392821	-145.052739009439	
2110000000	-15.7912405676536	169.636390967397	-3.77942397031183	117.185291077501	-3.77822733691245	117.17984783388	-22.4158307586917	-145.673921832874	
2110500000	-15.7299279252914	170.767763481818	-3.77892906224073	117.052410303242	-3.78866453766964	117.119563476123	-22.3085380502828	-146.110386991448	
2111000000	-15.6447700829413	171.429254864532	-3.77916149621392	116.997086366247	-3.77123838277022	117.081375510277	-22.2414579388562	-145.518703532719	
2111500000	-15.6397701967771	172.684363880912	-3.78571225275214	116.998324284006	-3.7696219672764	117.024435066166	-22.0670965437181	-146.790280724115	
2112000000	-15.6226133846817	173.463980230992	-3.7742840214277	116.912950779277	-3.78656335585914	116.916996184268	-21.9778505683776	-147.331197722603	
2112500000	-15.6114048596719	174.418341179514	-3.78283321406394	116.931150056503	-3.78717985565491	116.972727922451	-21.8408529202358	-147.980889494546	
2113000000	-15.5753571754875	175.428900584117	-3.78874750281673	116.837887560638	-3.78037179509358	116.881357950291	-21.7414829711107	-148.385904641851	
2113500000	-15.5308149535066	176.313632741665	-3.78625219912379	116.80386871943	-3.77959708197195	116.767646857047	-21.5634241071714	-148.93890559623	
2114000000	-15.4932195050648	177.297586886839	-3.78882310546912	116.714194306901	-3.78630799428932	116.709008802711	-21.5646269766044	-149.350859455734	
2114500000	-15.4620636118577	178.389088235476	-3.77855200822398	116.696768451648	-3.7774992977457	116.714211847751	-21.3903085507242	-149.909863161322	
2115000000	-15.4472642035225	179.258246291935	-3.79821529871057	116.686125603354	-3.77566351825474	116.597636019341	-21.2571744267136	-150.718851770676	
2115500000	-15.4653531529402	-179.874676574367	-3.7891922839396	116.66486155346	-3.78132562991386	116.60483848309	-21.1288622804813	-150.944141883413	
2116000000	-15.4164256613082	-179.332698386693	-3.78521454112675	116.553044673756	-3.79358613414708	116.589280168448	-21.0197489124945	-151.876468060264	
2116500000	-15.3901287270415	-177.97168239543	-3.79266491388184	116.528956267817	-3.77657170056993	116.523516887066	-20.9122794449426	-152.334696787988	
2117000000	-15.3357966198622	-177.088555930724	-3.77826071650815	116.433663182541	-3.79030604149254	116.525197889794	-20.8975077603005	-152.837598456067	
2117500000	-15.3383630189069	-176.322441450564	-3.79093594481697	116.425742608738	-3.79200244338875	116.387743689339	-20.6789835499222	-153.325119172225	
2118000000	-15.3332891348089	-175.600409010672	-3.7911674805793	116.349400888592	-3.78709625906363	116.374817564966	-20.6666998050937	-154.09140346245	
2118500000	-15.2908645780553	-174.635686991992	-3.79236501851131	116.290372325963	-3.79090478829446	116.348905310164	-20.5031444620812	-154.496774370078	
2119000000	-15.3313728172499	-173.73749625781	-3.79893692244213	116.250078414277	-3.79612149589741	116.310317591475	-20.3745857342829	-155.230955891489	
2119500000	-15.3101377985925	-172.904476506831	-3.79144380119628	116.223239754893	-3.79218516257778	116.216336548062	-20.3288775194571	-156.283532341383	
2120000000	-15.2852974217133	-171.83049669114	-3.79443016586952	116.164102655228	-3.78781963602419	116.136348447293	-20.1405341566539	-156.051541553671	
2120500000	-15.304964851755	-170.979632201679	-3.78963492262081	116.090542902749	-3.78483843694572	116.125276644206	-19.9960538871004	-156.701796394152	
2121000000	-15.265859984987	-170.365617443398	-3.79536154390778	116.116366312776	-3.80155037131657	116.066443381177	-20.0197662022558	-157.218773843149	
2121500000	-15.2318094709309	-169.180679854949	-3.80078765820896	116.017881116493	-3.78760972796862	116.003560912886	-19.8982362585855	-158.148259509129	
2122000000	-15.2564656743344	-168.381815251193	-3.79901203568925	115.931338402288	-3.79459532720466	116.005543333925	-19.7957263059973	-158.712477543544	
2122500000	-15.2280949092922	-167.363282264069	-3.80035085122872	115.907478933076	-3.80192136023305	115.953881274302	-19.6944867236294	-159.505472139006	
2123000000	-15.2337106031868	-166.83270518834	-3.80224132587346	115.874041275815	-3.79458017067149	115.890726127343	-19.5538461777782	-159.497518327587	
2123500000	-15.2283805754713	-166.001196343298	-3.79448894098529	115.862032634544	-3.7983444291192	115.917461820153	-19.4445642447026	-160.165471657954	
2124000000	-15.1786598615392	-165.050520672317	-3.79336468908984	115.774311054593	-3.80801090947481	115.842532465083	-19.4188551457077	-160.784675324816	
2124500000	-15.2442568144803	-164.2869827453	-3.79742478196449	115.789316381152	-3.79348976909318	115.704624513472	-19.3558241207327	-161.376176738591	
2125000000	-15.241509267163	-163.505549953464	-3.79996607660416	115.666297673985	-3.79560667109418	115.694574055278	-19.2460226715562	-161.742598194421	
2125500000	-15.2374067570659	-162.585718820253	-3.79433731226361	115.651896398069	-3.79745813840782	115.654442281396	-19.1222099452394	-162.063272581026	
2126000000	-15.2581332871508	-161.965557382775	-3.80656640310004	115.545316834201	-3.78951824035287	115.613653513787	-19.0039911792417	-162.624369512115	
2126500000	-15.2972494665466	-161.080590806898	-3.80440659532969	115.540118874902	-3.80156721348678	115.597002398029	-18.9614099559055	-163.200125517643	
2127000000	-15.2099521135571	-160.255258631151	-3.80413458913794	115.494033129178	-3.79970447032572	115.504868109797	-18.9648524297962	-163.555263181137	
2127500000	-15.2052894273361	-159.501315857322	-3.80847342836532	115.395670454604	-3.80019811167549	115.487444238804	-18.8137439480067	-163.737663793402	
2128000000	-15.2708708511756	-158.525902202573	-3.80216769375971	115.375552535929	-3.79756462090232	115.403491215278	-18.6955901841241	-164.281662507855	
2128500000	-15.2119079928018	-157.472746199922	-3.80357350133713	115.317126159346	-3.80530990108212	115.408993560223	-18.6698987723661	-165.075958727348	
2129000000	-15.2578624061483	-156.685708635062	-3.80334515067077	115.367214928476	-3.79231167070024	115.322151360203	-18.5689146273074	-165.682308535509	
2129500000	-15.2425987174825	-156.344494936098	-3.80465484960231	115.23796086126	-3.79706858052124	115.291935137436	-18.5187445655769	-166.163955348497	
2130000000	-15.3111479173838	-155.295107846911	-3.80662138976404	115.253328457344	-3.79915331290796	115.179090852709	-18.3676333324541	-166.527684881235	
2130500000	-15.3385447161033	-154.480751830564	-3.8108051394248	115.192886636986	-3.80763179892971	115.183631921892	-18.2940059258647	-167.011511016727	
2131000000	-15.3158376448093	-153.698390616361	-3.79989589823678	115.087438070585	-3.80242444267972	115.12276812514	-18.2370892342045	-166.828189619365	
2131500000	-15.3246184916793	-153.176261182895	-3.80181639781817	115.094655878815	-3.80335669012378	115.063648764934	-18.1952433234658	-167.803607344708	
2132000000	-15.3206489816026	-151.850027601039	-3.80490562186365	115.077516956788	-3.8082658476823	115.012168589662	-18.1421549429662	-168.308605144808	
2132500000	-15.3234712513151	-151.448068369659	-3.80586459345749	114.999784173778	-3.79394066565891	114.987232777085	-18.0721121084699	-168.05545534868	
2133000000	-15.3694427674625	-150.462361103561	-3.8040511870773	114.844320956906	-3.79692427899595	114.942155750362	-17.984669077653	-168.889438696341	
2133500000	-15.405774121805	-150.137459165389	-3.81597168941393	114.842068147681	-3.79810794627732	114.892191023614	-17.9407602187009	-168.948119582629	
2134000000	-15.4321298994833	-149.427555139469	-3.80551885792983	114.817543826886	-3.80769820744949	114.806235769232	-17.8825887534464	-169.261994100107	
2134500000	-15.4930633086208	-148.446452729386	-3.80598618059696	114.830870772809	-3.80013743708779	114.726454403836	-17.8311463139422	-170.047230309474	
2135000000	-15.4467342900573	-147.803709345724	-3.79966807272522	114.71188689047	-3.80071823441367	114.720312179707	-17.7220738907957	-170.309812445208	
2135500000	-15.5159114759167	-146.726323566283	-3.80400472788648	114.609675839715	-3.79336404890599	114.750644884224	-17.7361237393791	-170.672146493348	
2136000000	-15.5519978835079	-146.230337653034	-3.81118296741291	114.619763084524	-3.80118909182433	114.611950203298	-17.6602228646172	-171.003796626034	
2136500000	-15.5262135538223	-145.446058460101	-3.80266929046502	114.544070561553	-3.80257348230376	114.5854485106	-17.5981256664201	-171.13368092446	
2137000000	-15.6269681648588	-144.932110176511	-3.79325027356441	114.515502471586	-3.80210206539934	114.51660439549	-17.5270140203098	-171.278452396393	
2137500000	-15.6297746132725	-144.185302286915	-3.80020039003716	114.434729694709	-3.80026790294658	114.468966771566	-17.5394113240754	-171.930726856815	
2138000000	-15.6114471291883	-143.441445384899	-3.8039621883582	114.402878616598	-3.79509147240969	114.442861754833	-17.4450559589912	-172.281672229967	
2138500000	-15.668587546928	-142.932923278958	-3.801145407908	114.341191684156	-3.80715961912792	114.362961135901	-17.429029862178	-172.308947019518	
2139000000	-15.7291644366978	-141.780742848112	-3.79916031788349	114.289892613943	-3.79542350130927	114.284598616284	-17.3860382691236	-172.7459392769	
2139500000	-15.7708750836888	-141.373140307088	-3.80304558935553	114.224118375861	-3.79170334297289	114.300407832789	-17.3492810949165	-173.030910704686	
2140000000	-15.8478176723838	-140.937505099885	-3.80124073152774	114.193181222157	-3.80345487675849	114.239541870238	-17.2735019318321	-173.39419923532	
2140500000	-15.8606699441906	-140.157579454429	-3.8036760050428	114.154676477038	-3.80098328378799	114.150909962598	-17.2955656411473	-173.114720144342	
2141000000	-15.924025881471	-139.632395908804	-3.8006854268202	114.075907421912	-3.79865388867546	114.105154257382	-17.2478095260935	-173.311251678785	
2141500000	-15.9267938470642	-138.614509971257	-3.80682541034728	114.051381215307	-3.79930287658123	113.978111686383	-17.1964051445732	-173.778643848369	
2142000000	-16.0047715019717	-138.13844907746	-3.80258067682694	113.964781229972	-3.79229252460149	113.952622705305	-17.1994877732798	-174.171055184012	
2142500000	-16.0276753302328	-137.54600503923	-3.79949301046796	113.889715501586	-3.80219229059759	113.921140427295	-17.1527926520655	-174.377728058308	
2143000000	-16.1082211324327	-136.680191296572	-3.8043186640624	113.850293686671	-3.80130872810451	113.852915643136	-17.1208940887245	-174.474585296691	
2143500000	-16.1454854250341	-136.034761823448	-3.80005727280589	113.757833227371	-3.79589091400168	113.788976664096	-17.1211276638227	-174.655261452117	
2144000000	-16.2386282842576	-135.351404253866	-3.81083894930946	113.744355147653	-3.79796955213552	113.738619462159	-17.0773032862965	-174.882702846506	
2144500000	-16.3025661469912	-134.904050279811	-3.80186430498796	113.703936248848	-3.80160116443729	113.697762636771	-17.016657004579	-175.014678536237	
2145000000	-16.3598678690336	-134.329141548044	-3.79768110251059	113.656822007562	-3.79181587435991	113.658376744766	-17.0223475863354	-175.123795782229	
2145500000	-16.4065639295557	-133.651635606342	-3.79678540671524	113.627056257118	-3.79309998476216	113.557302349269	-17.03848906642	-174.921253686716	
2146000000	-16.4341195280743	-132.960185411825	-3.79816671750387	113.560080830355	-3.80549206748543	113.601132193247	-17.0381995303986	-175.33880770769	
2146500000	-16.5179088722831	-132.720889771023	-3.79490274197134	113.43937257359	-3.79578208285737	113.49122827163	-17.0023043069301	-175.542057243407	
2147000000	-16.529746699139	-132.032164341849	-3.79594542332235	113.371104368081	-3.79279581876448	113.426188619927	-17.0148873578106	-175.719472322227	
2147500000	-16.688134590478	-131.3337124475	-3.78644786020124	113.350623053556	-3.79345660967528	113.349153142599	-17.0038999188472	-175.874960730463	
2148000000	-16.7319333095053	-131.073107457791	-3.79793162412239	113.246797011087	-3.79318406879992	113.309933278762	-17.0346849362283	-175.566330647893	
2148500000	-16.8076386250465	-130.364820649405	-3.79721154561632	113.19416356238	-3.79798606300942	113.119976222276	-17.0293453241808	-175.905278437634	
2149000000	-16.8866326416336	-129.715230569902	-3.79399938995143	113.131635005519	-3.79552132914985	113.143804231381	-16.9435825785524	-176.021596718874	
2149500000	-16.9569551183502	-129.354672579257	-3.8023326762526	113.056591241456	-3.78784103976001	113.147341759165	-16.968065447595	-175.745344566516	
2150000000	-17.0163128027829	-128.631328408336	-3.79664204789821	112.984922997319	-3.79607395308883	113.024293207229	-16.9871265037556	-176.118014117876	
2150500000	-17.080073144583	-128.101646588155	-3.79528228141665	112.973475423587	-3.78667426995035	113.012465983131	-16.9752714848157	-176.235691920676	
2151000000	-17.2596861084148	-127.990707609429	-3.79791029650159	112.891173680694	-3.79586486845043	112.881325478946	-17.0072397409424	-175.978190450897	
2151500000	-17.2433838071855	-127.281565316495	-3.78717761126977	112.8520398225	-3.79038123368392	112.836258324345	-17.0567648279471	-175.723619169032	
2152000000	-17.408303615766	-127.34198492106	-3.78699680838312	112.811096781251	-3.78695099740021	112.753002311486	-17.0155989325879	-175.953033595141	
2152500000	-17.509288524491	-126.55934432632	-3.79491583837237	112.67566773239	-3.79657921867038	112.71267017358	-17.0278795443498	-175.964368195988	
2153000000	-17.5688995413671	-126.275885899551	-3.79079366992975	112.661332130133	-3.80012141778749	112.653191411502	-17.0990512516058	-175.795625433449	
2153500000	-17.6214950217324	-125.608123614199	-3.79005668916458	112.587723166408	-3.78902705802866	112.622042841706	-17.0597286867439	-175.977725747313	
2154000000	-17.7366766864347	-125.458553335376	-3.78759461410631	112.510078411226	-3.78993765386685	112.577356136084	-17.0901523775413	-175.723423998895	
2154500000	-17.9069787546789	-124.872478868882	-3.79019148681747	112.404890336814	-3.79025902252426	112.487289964457	-17.0786002342336	-175.674865076899	
2155000000	-17.9751337469251	-124.708740937873	-3.78568722879042	112.388061768275	-3.79261870814175	112.426979908469	-17.1517853925323	-175.384394390185	
2155500000	-18.0865351538419	-123.856165472079	-3.77754961205799	112.280282239362	-3.78489097829202	112.330617292725	-17.1428548009207	-175.762270458856	
2156000000	-18.1881607361665	-123.484675460949	-3.78554782018034	112.260011709997	-3.78705094641423	112.2688096414	-17.2146442170661	-176.193719666687	
2156500000	-18.3347348777082	-123.521984907548	-3.78893240290322	112.12366335994	-3.77762100240094	112.215540539604	-17.2442689290428	-175.261687563767	
2157000000	-18.4338696265426	-123.783226079942	-3.78443902571139	112.027838334457	-3.78598518552504	112.16445949935	-17.2682537485677	-175.002136092858	
2157500000	-18.557428641347	-123.633740437913	-3.78688875084071	112.047134568307	-3.7829169920686	112.034924441842	-17.2426733567904	-175.13356162173	
2158000000	-18.7200994189095	-122.71048394285	-3.78514041247326	111.981914947883	-3.79902515431343	112.002332864752	-17.3249638311588	-174.790892779039	
2158500000	-18.8592051766223	-122.207128208066	-3.79317097834661	111.851272630034	-3.77579518898187	111.879500665415	-17.2441363063779	-174.892530709113	
2159000000	-18.8829380153321	-122.438066069014	-3.77584932554704	111.854174509765	-3.78351940597908	111.835297810686	-17.369188866194	-174.420016453327	
2159500000	-19.0662747740858	-122.351659772254	-3.78025603774203	111.805259225369	-3.7895339663565	111.757867895204	-17.3736628191509	-174.245605878559	
2160000000	-19.2430649423161	-121.940127172992	-3.7891139961794	111.660088158289	-3.78354520645624	111.684491775139	-17.4373207784723	-174.200537800598	
2160500000	-19.3658316570845	-122.002474386153	-3.78877948113997	111.584509175101	-3.78293051227574	111.616989138018	-17.4663051847489	-173.821862590667	
2161000000	-19.4357188077575	-121.892411945999	-3.78659292397716	111.485965283715	-3.77535103939698	111.545272319304	-17.4766175728169	-173.576757775196	
2161500000	-19.5711619754409	-121.585336800567	-3.78633693656237	111.512339779627	-3.79219152542791	111.411219886961	-17.4953607208761	-173.975052755247	
2162000000	-19.759882518279	-121.282263792851	-3.78691897905763	111.372238874352	-3.78239430431474	111.357737282843	-17.551817617389	-173.421961722802	
2162500000	-19.870524157507	-121.902609485184	-3.79447377257953	111.367703582491	-3.77773738171277	111.327297760213	-17.6048364761834	-172.80878741164	
2163000000	-20.0952684148758	-121.624368916682	-3.78072399268581	111.221145827116	-3.78080170887369	111.273196842362	-17.6651534031172	-172.601032464933	
2163500000	-20.2182859089807	-122.399213577696	-3.7891419772528	111.13875274173	-3.78732502858173	111.212154743319	-17.6995845411607	-171.738120356134	
2164000000	-20.4132236127003	-122.158093214914	-3.77770869323771	111.044753675015	-3.77928942406437	111.151242330294	-17.7279712676171	-171.87557550299	
2164500000	-20.5262452587684	-122.281189230995	-3.77215735264951	111.00995710893	-3.77121825121545	110.991684963702	-17.7588146647655	-171.693669980868	
2165000000	-20.720560428346	-122.711388973532	-3.77296584444294	110.889610503454	-3.77553612771959	110.963957410205	-17.7839340003012	-171.225643762906	
2165500000	-20.9599875111998	-122.814577364292	-3.77583319101801	110.83558314874	-3.774878250368	110.926835646621	-17.8502074746135	-170.96106010945	
2166000000	-21.0755250927275	-122.797426632569	-3.77260314692299	110.787197901973	-3.77450057151763	110.796436986474	-17.8858685405491	-171.025550577028	
2166500000	-21.2875712949226	-122.987377680019	-3.76996789390265	110.707910049161	-3.78178875074131	110.720552211495	-17.9754899474306	-170.19745605397	
2167000000	-21.3091540610012	-124.056429667308	-3.77663551077642	110.658510256409	-3.77097200288883	110.65371050723	-18.0659514726963	-170.058204215968	
2167500000	-21.5968232712782	-124.256300180477	-3.76806579638535	110.567071165714	-3.7847125645506	110.585951528341	-18.0738031778311	-169.562900616017	
2168000000	-21.8298052436803	-125.504847748654	-3.7723892667593	110.433161006067	-3.7646913160874	110.479800880417	-18.109439807446	-169.09204327345	
2168500000	-22.0203850271429	-125.846044721844	-3.77433287009142	110.38523360852	-3.76258884346691	110.378158724786	-18.1222424156462	-168.458114085031	
2169000000	-22.2026728834079	-126.276095440075	-3.77747162036067	110.262659636306	-3.77628803162342	110.326104665454	-18.1897287578349	-168.046561431132	
2169500000	-22.4168138507357	-126.772096804021	-3.78196754697257	110.170800731097	-3.77311356175249	110.330935856703	-18.2140339469387	-167.643514666784	
2170000000	-22.6334467393236	-128.094647571083	-3.76907863526414	110.134602173406	-3.76937006702435	110.134131644785	-18.2673220667538	-167.294274402309	
2170500000	-22.7382134473685	-128.600208339183	-3.77289818657915	110.080844619147	-3.76884292710116	110.121583204554	-18.296269494221	-166.739456036103	
2171000000	-22.9302084457532	-129.957598889909	-3.76138615513521	109.922306097105	-3.77130966780531	110.045973502219	-18.3017296080055	-166.862589215234	
2171500000	-22.9949382706669	-130.70184991327	-3.76783138174207	109.885265281471	-3.77306852236832	109.859181184586	-18.3289705819905	-166.128252592511	
2172000000	-23.4113184531749	-132.286553128544	-3.77422547578851	109.792546620319	-3.76318226781319	109.881202502472	-18.3632803110803	-165.45029629208	
2172500000	-23.3542548477754	-133.087128024126	-3.76876147019301	109.762994568382	-3.76229494608049	109.757637426368	-18.383408986042	-164.854743563731	
2173000000	-23.5542502190154	-134.839768433389	-3.77513654331207	109.663881784743	-3.76719314128823	109.689101521843	-18.458310978428	-164.79238962291	
2173500000	-23.6391796083841	-136.090678611702	-3.77340545232967	109.531399712047	-3.77177468626518	109.588442339501	-18.4872840694144	-164.115851940027	
2174000000	-23.8364904515541	-138.206962690259	-3.7637919145181	109.424586395006	-3.76822133434333	109.546698499106	-18.5735275413083	-163.215084485054	
2174500000	-24.0149422952479	-139.660335514769	-3.76330930467704	109.351824116652	-3.77324982157088	109.429994518443	-18.5074427889859	-162.877127377228	
2175000000	-24.1222844576927	-140.765858811246	-3.76230640851823	109.339921513793	-3.76916399495434	109.345030828436	-18.5597725791693	-162.451978250141	
2175500000	-24.1322584686826	-143.235133977499	-3.75273565694759	109.18651937549	-3.76262436503418	109.252659725534	-18.5926555335275	-161.495498017945	
2176000000	-24.3898311015687	-144.638036111276	-3.76235178947455	109.091163276401	-3.76094109266529	109.22190927405	-18.6004010978988	-161.130669746956	
2176500000	-24.5375752410514	-146.868844225806	-3.77009842239488	109.017325045506	-3.76586316721963	109.036324351304	-18.5835045813536	-160.456015600483	
2177000000	-24.4527738382143	-148.990425867585	-3.77599658303437	108.962739305824	-3.77010644830352	108.96616581283	-18.6353745283495	-159.603841412442	
2177500000	-24.5326442022831	-151.418567852944	-3.77103770162685	108.925951161197	-3.7623615225701	108.936773808472	-18.6352958976503	-159.389131340421	
2178000000	-24.6098227760916	-153.231600013688	-3.77134019068404	108.772188000197	-3.77049711829033	108.852076112423	-18.6521506976718	-158.696507573726	
2178500000	-24.6553471116823	-155.198795400455	-3.76675235279686	108.661143304616	-3.78044778036449	108.733700232912	-18.6185445564736	-157.782614851535	
2179000000	-24.5949480451454	-157.242144518033	-3.77222629443632	108.625135705869	-3.75730912074253	108.655806619843	-18.6746765563481	-157.186043161396	
2179500000	-24.533159210199	-159.210882644637	-3.75274301053137	108.522256941206	-3.7687992095013	108.511816342117	-18.6975615856374	-157.362215899036	
2180000000	-24.5821864358628	-162.345796249886	-3.77758619680781	108.414491088734	-3.76883062341034	108.505068226066	-18.6662210605351	-156.291633326119	
2180500000	-24.4608246970297	-163.04949072469	-3.76682566377934	108.39838545428	-3.76842550072827	108.390635223915	-18.6451831111946	-156.013321198202	
2181000000	-24.3036827974462	-165.837478383269	-3.76553278191224	108.246766186929	-3.75893481459704	108.321112620855	-18.7203938984543	-155.325292563246	
2181500000	-24.1473982449283	-167.597810744151	-3.77638462476228	108.202929480526	-3.76681478329801	108.183786743357	-18.641154498677	-154.637190029234	
2182000000	-24.0565868913409	-170.250940550497	-3.76636063928967	108.091414359966	-3.75006351460136	108.147423594589	-18.6599559656903	-154.136832389607	
2182500000	-23.9731638346021	-171.384932823639	-3.76326964337371	108.007725046626	-3.77928711277807	108.06120026108	-18.6320240656119	-153.85622269943	
2183000000	-23.8256498590463	-172.671904938856	-3.77315968280962	107.923290154988	-3.7626476992027	107.943253708758	-18.6671592924554	-152.78190737329	
2183500000	-23.5665139467564	-175.41048872966	-3.77845020527392	107.841951576065	-3.77328371213388	107.886070065201	-18.628947289223	-152.340198205911	
2184000000	-23.3665576513736	-176.343230979021	-3.77172597884366	107.744825800777	-3.76351124978269	107.741155010454	-18.5988885640481	-151.961677915485	
2184500000	-23.1474916564269	-178.379133632723	-3.76841890740561	107.676372003949	-3.76625966046486	107.69632406546	-18.581317044393	-151.838893801304	
2185000000	-23.0392870765303	-179.573049276639	-3.77044661659328	107.577957765581	-3.767939430932	107.577858257725	-18.5513314435356	-151.122109085258	
2185500000	-22.7565551247981	179.091625548026	-3.77448707823308	107.45990796071	-3.76602898342839	107.536631539988	-18.522131718988	-150.73152585041	
2186000000	-22.5520616389203	177.385876021215	-3.78243971857933	107.351403683687	-3.77112918288068	107.442263091928	-18.450158933926	-149.768590279155	
2186500000	-22.469861790194	176.138977300873	-3.77314807630157	107.334369463031	-3.76940198648383	107.304709348537	-18.4435825742957	-149.466007086747	
2187000000	-22.1574384259451	175.646512229747	-3.76842639910418	107.208266711052	-3.77956331029846	107.259504122636	-18.3810794977212	-149.525149950707	
2187500000	-22.0125876559698	174.716730060043	-3.77784298604319	107.154636125683	-3.77892046661948	107.171697234333	-18.3531388420864	-149.018043716357	
2188000000	-21.7239768263101	173.572680395218	-3.77631161278541	107.014045455393	-3.78002868425523	107.119095148532	-18.3701908012382	-148.40775113827	
2188500000	-21.5488423609617	172.819945109851	-3.7819091467138	106.96788624723	-3.77293433342672	106.949187918219	-18.3588451412675	-147.968297112461	
2189000000	-21.2443875737534	171.783841848199	-3.77152311542078	106.824894188094	-3.77055630036362	106.895313511808	-18.2672529979324	-147.635736391642	
2189500000	-21.0516724264021	171.40582486443	-3.78837867477146	106.728113310233	-3.76837008987564	106.834268462054	-18.2369511833664	-147.481027643086	
2190000000	-20.8596973444854	170.398608063164	-3.76838042332797	106.676327327707	-3.77717650779235	106.791745968049	-18.1461154604548	-147.151859081255	
2190500000	-20.6553405802793	170.673655390911	-3.78430992923967	106.647232190383	-3.77490839010306	106.592149046871	-18.1023311254757	-147.056160244416	
2191000000	-20.403800326658	169.878637476121	-3.77376695100856	106.520664248354	-3.76863994167422	106.494377147178	-18.081311811677	-146.322060029254	
2191500000	-20.1810618236888	169.192607047723	-3.77156223113848	106.421767540017	-3.78040501554711	106.511763087521	-17.9940587599706	-146.266260252855	
2192000000	-20.0391787400814	168.57783662252	-3.78194558478558	106.411989185107	-3.77135940016891	106.279739494941	-17.9218148865829	-146.104241652208	
2192500000	-19.8000880704557	168.25059135084	-3.77789046444898	106.234050724947	-3.77665245438626	106.252889661934	-17.8191134545095	-145.464790055432	
2193000000	-19.6427840721649	167.656982691528	-3.78696276621418	106.146413680872	-3.7857377789252	106.209348886749	-17.8247507954037	-145.23240349176	
2193500000	-19.418627943702	167.515316204224	-3.77735188324262	106.060512573598	-3.77655367199659	106.151111676991	-17.7704835848908	-145.095470969038	
2194000000	-19.1178723082736	167.05851048894	-3.78509704091335	106.006467186732	-3.78830216319064	106.043689913013	-17.6973922165051	-144.963839998022	
2194500000	-18.9911213760263	167.599785118114	-3.78356770175541	105.926367255551	-3.77712300623272	105.977734158765	-17.6578712507333	-144.866616554771	
2195000000	-18.7444534659262	167.25470793025	-3.79618086117335	105.826229245769	-3.79192338729775	105.918976759049	-17.6347533983749	-144.348143561906	
2195500000	-18.6907913997176	167.062592949252	-3.79806036468626	105.78425841728	-3.78496515260576	105.780160483708	-17.5275340138983	-144.781030073969	
2196000000	-18.4259221900521	166.53111894527	-3.80331711366326	105.656476476379	-3.78795869345411	105.715522179123	-17.4711699929728	-144.381560001301	
2196500000	-18.2317717429224	166.875116812392	-3.7940700766816	105.603841781379	-3.78391129532209	105.607982796788	-17.4582591229361	-144.364337617436	
2197000000	-18.0863638725846	166.643099854485	-3.79704588053291	105.530610033512	-3.78502876852677	105.538884715745	-17.4081649184843	-143.968321387452	
2197500000	-17.8291590458224	166.851929110097	-3.78970232408049	105.521097697994	-3.78983303959632	105.490769301181	-17.3374264959345	-144.081612182382	
2198000000	-17.7095937066021	166.981805802464	-3.79747837120166	105.341106193216	-3.78455331596945	105.445386379679	-17.2630128070734	-144.07202284682	
2198500000	-17.5762967507712	166.945233425865	-3.80205364728818	105.261176880569	-3.79234444456765	105.291426033968	-17.2019429081367	-144.009146057433	
2199000000	-17.3981507437285	167.022626958658	-3.80414553640828	105.203994983478	-3.79640987555871	105.213405947572	-17.2101867405109	-143.95912539115	
2199500000	-17.2122971799573	166.976170706254	-3.80331813453935	105.224731897219	-3.80333504462822	105.142969947952	-17.0603001876079	-143.791847177985	
2200000000	-17.0716462319696	167.448151874694	-3.79673032560396	105.05111917792	-3.79749633129603	105.034924747255	-16.9900006881406	-143.601645048702	
2200500000	-16.9499298594392	167.72006345426	-3.80470041023963	105.007015716513	-3.80406250310321	105.010445747085	-16.9715010408434	-144.103593152828	
2201000000	-16.7743517575644	167.749065327705	-3.80870235197541	104.891129259618	-3.80439979939437	104.911157347837	-16.9480247508584	-144.175094154967	
2201500000	-16.6307395607288	167.928837762421	-3.80822267088789	104.800823234423	-3.80092666836849	104.827963121021	-16.8489039427951	-144.033990135251	
2202000000	-16.5284333232227	168.124195970755	-3.81120393682525	104.739377036231	-3.80380772755227	104.778273442297	-16.7626703718051	-144.134794381043	
2202500000	-16.3545341591493	168.216591852884	-3.80642638449395	104.646691916523	-3.81309340274569	104.636344142388	-16.7218877520591	-144.094547409485	
2203000000	-16.1441931261544	168.489066988814	-3.81854036728337	104.573942211505	-3.80330928508026	104.620916238705	-16.6491178760923	-144.10258334026	
2203500000	-16.0633823555273	168.978578426717	-3.8066674623284	104.549354687051	-3.80342256243782	104.543013896987	-16.626406929026	-144.379235198206	
2204000000	-15.8877862402768	169.089315005345	-3.8096188131662	104.410668841726	-3.81308496948528	104.451349362493	-16.4974307792469	-144.257939265912	
2204500000	-15.834683358808	169.441045297259	-3.8170921945388	104.362874010438	-3.81298124988521	104.401337709737	-16.4678592585937	-144.640727404784	
2205000000	-15.6833941316906	169.691749238892	-3.81909371936611	104.343006836734	-3.81853499825156	104.29976402301	-16.3984301691699	-144.716103533011	
2205500000	-15.5388242434217	169.679865348514	-3.82557133783896	104.228737570855	-3.81559347698696	104.259386299899	-16.2922388766309	-144.348767298691	
2206000000	-15.4071331761708	170.2654262059	-3.82119102562756	104.180117153635	-3.81681329729204	104.132099809667	-16.3353196450512	-144.461841329319	
2206500000	-15.2972551442286	170.577381517783	-3.82092389151963	104.042776730495	-3.82030309637345	104.094308954389	-16.2394418839127	-145.17587735971	
2207000000	-15.1692042037386	171.103829348372	-3.81843047337884	104.055895154744	-3.82448618756308	104.070012685195	-16.1421185921451	-145.269618279749	
2207500000	-15.0571264178857	171.504160312728	-3.83002859809101	103.979860139669	-3.81854278190612	104.02650500373	-16.1113092443019	-145.264076689738	
2208000000	-14.960809089261	171.574106271563	-3.82134207507441	103.986040115799	-3.83155230303516	103.9306727923	-16.0081707054557	-145.351566370949	
2208500000	-14.8547566008444	172.070942498329	-3.82616534114575	103.864401253913	-3.82877908746762	103.800516237096	-16.0025796531366	-145.705656889874	
2209000000	-14.7547463783815	172.562511114481	-3.82628143550606	103.7214203266	-3.82771073348339	103.78151848269	-15.9314330565099	-145.950165590488	
2209500000	-14.6419337900818	172.486226969137	-3.83541302603921	103.687646235855	-3.8378346696688	103.735824845463	-15.870185724076	-146.215376676073	
2210000000	-14.5002738296084	173.175274742092	-3.83363641952686	103.645680326512	-3.8253394939498	103.625972392331	-15.8306606405322	-146.279848514213	
2210500000	-14.4322419953215	173.678289674498	-3.83359824035928	103.621464647896	-3.82704535077955	103.571934589068	-15.7381245758596	-146.311063956527	
2211000000	-14.3070315612562	173.884653594515	-3.84317445609668	103.504360431432	-3.83562069012384	103.505745223111	-15.7347363649657	-146.758738466059	
2211500000	-14.2514636439435	174.537957823391	-3.83877790277489	103.428124482362	-3.83205282260693	103.464413918492	-15.6170204855753	-147.298885222077	
2212000000	-14.1553463584928	174.801458088598	-3.84470724552243	103.388595843721	-3.83000687761858	103.311914682255	-15.5640948785144	-147.310676013748	
2212500000	-14.0617935264596	175.256549620455	-3.84537628680954	103.359995994796	-3.83993021602982	103.306896781883	-15.5398154702775	-147.373249401993	
2213000000	-13.9520402073344	175.774014221792	-3.83439516803473	103.273902404054	-3.84111585266368	103.267430765562	-15.4835587315243	-147.66534862048	
2213500000	-13.8583350397187	176.162967101342	-3.84158209155253	103.223144828959	-3.84899948460394	103.224686495676	-15.3831331093184	-147.828526993776	
2214000000	-13.8017670774458	176.60806715105	-3.84303892783021	103.090633749648	-3.8515647628812	103.194378754508	-15.3500758660411	-148.363518198446	
2214500000	-13.6925297864206	176.977715171462	-3.84866352055074	103.085615788997	-3.85416870489223	103.107591893386	-15.3068301582931	-148.24612552186	
2215000000	-13.5922821815058	177.518226209305	-3.86285775413343	103.043317673559	-3.85477439406668	103.027199652999	-15.249763150831	-148.571141276462	
2215500000	-13.5114936518415	177.913326083734	-3.86099026124396	103.003751970664	-3.85495580401959	102.960017686252	-15.1728579745515	-148.856194683771	
2216000000	-13.4260641717476	178.400237188867	-3.85235730617116	102.872175183886	-3.84730135963145	102.910950828209	-15.1244353497164	-149.012993814025	
2216500000	-13.3927118898829	178.62761339019	-3.86098331717518	102.881466721698	-3.85604045008931	102.886267665679	-15.0724778762214	-149.569766982445	
2217000000	-13.3113332155586	179.298785181863	-3.86989707505478	102.867719413131	-3.85386835437427	102.790254428982	-14.9756709194062	-149.604067701658	
2217500000	-13.2610495917866	-179.981558577574	-3.85606496560841	102.706264898496	-3.8555112862716	102.750167993337	-14.9560325202062	-150.158957603903	
2218000000	-13.1403443735401	-179.699516792562	-3.86716601373088	102.674017960971	-3.85262490998804	102.688786262856	-14.9587671172019	-150.123634757766	
2218500000	-13.1251641123208	-179.225329054288	-3.865287084289	102.617638367585	-3.85991979092448	102.635789555099	-14.8809761433165	-150.34795694478	
2219000000	-13.0192662414342	-178.719432251153	-3.86524836188189	102.606953064402	-3.85957016474497	102.585752933746	-14.7972111650889	-150.776283915664	
2219500000	-12.9983385945765	-178.230634356219	-3.87314401097268	102.568032440853	-3.86667429824225	102.521113093546	-14.7351983293306	-150.866477929734	
2220000000	-12.9162305432323	-177.641774000469	-3.86856929654697	102.445390361407	-3.86591119846643	102.483855134835	-14.7058123526768	-151.385599032541	
2220500000	-12.8561097091027	-177.212443972476	-3.86869262991067	102.472568124002	-3.86640417067321	102.420715134986	-14.6412738495842	-151.565130402487	
2221000000	-12.8151241752188	-176.697214159467	-3.87399904403176	102.371626592695	-3.87275077974686	102.368673877684	-14.6408595722783	-151.963426414682	
2221500000	-12.7328115949197	-176.221802721611	-3.87155324523251	102.348001280471	-3.86080715740302	102.327440734158	-14.5569032079144	-151.926017184579	
2222000000	-12.668498153607	-175.679874474675	-3.88082632375513	102.32258793113	-3.87326418666893	102.272997003008	-14.5164903072501	-152.252322158896	
2222500000	-12.6475705771069	-175.049237230856	-3.86948872583982	102.225958513211	-3.8694677897972	102.253883840188	-14.4612416595108	-152.65614230594	
2223000000	-12.5558024896387	-174.583869490948	-3.86383732416782	102.194770696514	-3.87989018496387	102.124109421352	-14.3988727381394	-152.905245050988	
2223500000	-12.4911148893891	-173.836767577983	-3.88869429484059	102.164733215625	-3.8646572636549	102.09328534679	-14.3904813213918	-153.457391130361	
2224000000	-12.4590978731765	-173.592899609925	-3.87992740177299	102.142984904723	-3.87603039758784	102.104473449967	-14.3079653861818	-153.353532044955	
2224500000	-12.407531192979	-172.98805074496	-3.89401913510963	101.999271293873	-3.876158376508	102.091398619914	-14.2999972241522	-153.818622204087	
2225000000	-12.3674908528874	-172.470551602919	-3.88764013075817	102.019558814703	-3.87632423101849	101.917284393773	-14.2053304787591	-154.136995861456	
2225500000	-12.3216923766399	-172.015214428552	-3.8839882280934	101.94726624511	-3.88768191652455	101.901650424007	-14.2152863103744	-154.321131009774	
2226000000	-12.2862604752674	-171.620002338368	-3.88660941742485	101.928909456733	-3.88107369255789	101.938412275315	-14.1858171591093	-154.310430054646	
2226500000	-12.2401188397742	-170.965301376035	-3.88672674191447	101.851436069394	-3.88957405290523	101.78774272721	-14.0997519650645	-154.887586002247	
2227000000	-12.1992309367111	-170.462762266303	-3.89675798627577	101.760039169392	-3.8776546986292	101.821607965002	-14.1174138742794	-154.952316472931	
2227500000	-12.1794934496003	-169.841223907818	-3.8895142293844	101.752820875318	-3.88799980854612	101.800134383474	-14.0811220698845	-155.550409692283	
2228000000	-12.1001946466793	-169.286901806156	-3.89086027662356	101.693577998409	-3.88424932551646	101.693507391238	-14.0008395871039	-155.418448343193	
2228500000	-12.0826532134188	-168.873095105145	-3.90600092273049	101.672755443591	-3.895560500774	101.624418565112	-13.9732358225153	-156.166259488434	
2229000000	-12.0334251359614	-168.176508891312	-3.90071562382451	101.545954337252	-3.89024422533396	101.541100649466	-13.9421311463956	-156.029712289262	
2229500000	-12.0262391672195	-167.637083996963	-3.89486922896473	101.546743644556	-3.90103181870086	101.555310617486	-13.9128327868115	-156.156145616639	
2230000000	-11.9675508013051	-167.201528442134	-3.88896741050044	101.554714598433	-3.89737664636262	101.51311260956	-13.8775021803962	-156.213941832154	
2230500000	-11.951927907534	-166.687661116614	-3.89616761266723	101.424959370134	-3.8993247472018	101.493997636547	-13.8501584756581	-156.715460430951	
2231000000	-11.9229790827456	-166.199587919561	-3.89895212374329	101.435318708769	-3.91271605197594	101.491871294792	-13.8220443038826	-157.007862746046	
2231500000	-11.9022571621143	-165.827096127341	-3.90160554745353	101.426053273339	-3.90001804352557	101.37055017836	-13.7822535075145	-157.206501740076	
2232000000	-11.8465605553322	-165.035083538403	-3.89692772532763	101.392164050704	-3.90517818926444	101.356937472885	-13.7799897504866	-157.476153537798	
2232500000	-11.8432323351093	-164.550018060327	-3.90239303488122	101.26682802576	-3.90119965104301	101.325430603812	-13.7561967269507	-157.740949255313	
2233000000	-11.7999161081801	-164.245204087771	-3.90729547277565	101.238556916013	-3.88707537334142	101.224024808172	-13.7108592812559	-157.827057733858	
2233500000	-11.7866109510828	-163.737558207751	-3.9004193701602	101.25206847005	-3.90467449734241	101.249613436543	-13.6977117996323	-158.004156077169	
2234000000	-11.7717426492995	-163.193514779533	-3.910343278818	101.218287704987	-3.90438720580269	101.202356213419	-13.6762245706852	-157.950046858923	
2234500000	-11.7735421059282	-162.509695170893	-3.89550428964756	101.214914044031	-3.90227641431622	101.135880096661	-13.6473832670779	-158.435443632061	
2235000000	-11.7187172270834	-162.125561280175	-3.90533251244122	101.081747252551	-3.91602964691746	101.116881149949	-13.6078650342397	-158.690454007574	
2235500000	-11.7251597393514	-161.377219261117	-3.90354236044215	101.034391864945	-3.90368077654428	101.05628258395	-13.5861703082789	-158.648860440654	
2236000000	-11.700124083473	-160.981589049896	-3.9105606071378	101.022192758438	-3.90625200144097	100.962555181348	-13.5774629517458	-159.126159450926	
2236500000	-11.6766796968245	-160.308602589294	-3.90577330857049	100.920147110461	-3.907652259572	100.883089837319	-13.5516550915694	-159.278170806502	
2237000000	-11.6672614518757	-159.921558190855	-3.90640343431538	100.927338379049	-3.90811385772908	100.855279686932	-13.5580186817045	-159.443165266426	
2237500000	-11.6434435697564	-159.190708006001	-3.90118455529314	100.884515513049	-3.90211361141143	100.876546033156	-13.5326967520979	-159.602172532217	
2238000000	-11.6466054954486	-158.920622527511	-3.90748832205039	100.772369093478	-3.91118977188077	100.774869598173	-13.4746412083068	-159.631920467822	
2238500000	-11.6149361085389	-158.090959107274	-3.9192474708009	100.814293616127	-3.9104401430792	100.787200102631	-13.4634161640645	-160.076323481418	
2239000000	-11.643800338475	-157.849130251681	-3.90488473676334	100.73982230278	-3.90304980237545	100.764436576302	-13.4541203117188	-160.107464303632	
2239500000	-11.6486250582793	-157.152754993685	-3.91531534111485	100.740673483159	-3.8970557749186	100.763043765366	-13.4485392576935	-160.240564516258	
2240000000	-11.640480962272	-156.794494808652	-3.90435218591374	100.627362943776	-3.90971444677567	100.619140128333	-13.4043972139919	-160.526917236324	
2240500000	-11.5815744088086	-156.502279952103	-3.91919950429831	100.590990090011	-3.91354414507003	100.5556188647	-13.455777066827	-160.895838130264	
2241000000	-11.6146824302074	-155.805389293278	-3.91171399706329	100.532711683758	-3.9098711475712	100.482540220406	-13.4186836231073	-160.525870007343	
2241500000	-11.6273801179232	-155.176093578807	-3.91314231124046	100.533595227682	-3.90352181282704	100.531766164344	-13.4088240833094	-160.735002751254	
2242000000	-11.5984448051506	-154.760160062084	-3.91929175788374	100.425240190365	-3.91437970891721	100.42991606211	-13.4345254002115	-160.96822111901	
2242500000	-11.5851420812335	-154.329771901624	-3.91803709054535	100.418240055282	-3.91314539558351	100.437076083095	-13.3870785354925	-160.92583015383	
2243000000	-11.5832716890948	-153.795320880982	-3.90646688988248	100.315425025623	-3.90162609345104	100.309262251192	-13.3476592141498	-160.746717051652	
2243500000	-11.615966280688	-153.374901416718	-3.91889427798785	100.28659393126	-3.91704132948613	100.321871146626	-13.4066497038517	-161.271361070913	
2244000000	-11.639033663882	-152.993938531144	-3.9103040792702	100.220853482918	-3.91591616580701	100.276672827383	-13.3850790743782	-161.228448018911	
2244500000	-11.6526183571376	-152.315646564588	-3.89754695233893	100.222973445157	-3.91423535431159	100.283769358434	-13.3544244741943	-161.538369907791	
2245000000	-11.6596795619285	-151.82106353502	-3.91180889327424	100.162799074227	-3.91186345807567	100.237435187426	-13.3381912476695	-161.576780806115	
2245500000	-11.6526775669282	-151.232668577403	-3.92296132470778	100.189157488941	-3.91127876811642	100.118413630369	-13.4045833641199	-161.729066389201	
2246000000	-11.6698064203902	-151.07418434725	-3.90548873294885	100.064040426129	-3.91105389865354	100.105792647613	-13.3785568391564	-161.69467976818	
2246500000	-11.6446752699275	-150.536993371361	-3.9066427312857	100.075214320157	-3.91527479839731	100.004599689071	-13.3630350294587	-161.594214578841	
2247000000	-11.6799230567171	-149.891365213328	-3.92035721610336	99.9870558138374	-3.90750615467719	100.005285830591	-13.3558705998423	-162.017695216457	
2247500000	-11.681196030312	-149.455754003088	-3.91150651469411	99.9471013838598	-3.91709161369314	99.9598618469732	-13.3468156278093	-161.934008412677	
2248000000	-11.6915972918342	-149.119255928791	-3.91042416613696	99.8953474973982	-3.90373413249307	99.8929827533982	-13.3752796689373	-161.91288455515	
2248500000	-11.7405859494994	-148.686533959629	-3.90738771723147	99.8912122195648	-3.91942689848466	99.8557314935264	-13.3678363361017	-161.993177577783	
2249000000	-11.7355432134796	-148.142381978076	-3.91117465011356	99.7964516370899	-3.91126319724659	99.7682507628113	-13.417541338321	-162.222561375301	
2249500000	-11.7968834815562	-147.522648419269	-3.90724169235205	99.7701813678619	-3.91415323655392	99.7445743109566	-13.358980980622	-162.247639036547	
2250000000	-11.8086387635866	-147.417668531321	-3.90984955410996	99.6984128726288	-3.9117883161611	99.7342925590104	-13.4089786512799	-161.998824040869	
2250500000	-11.8317132377657	-146.781996964467	-3.91549939414493	99.6513741794392	-3.91331621206862	99.665515172964	-13.3872562991502	-162.181483160213	
2251000000	-11.8321076577292	-146.480208051221	-3.90045959443068	99.6713434186343	-3.90919151507754	99.5442276469744	-13.360580980027	-162.276660916924	
2251500000	-11.8807385395966	-146.120925092826	-3.90939532841261	99.4963950953722	-3.90071454639737	99.5882874446224	-13.4132394118305	-162.324447191242	
2252000000	-11.8724753517664	-145.913759560217	-3.90782952847284	99.4601463749168	-3.91046535650934	99.4860742545985	-13.4168059870448	-162.280878716416	
2252500000	-11.933955230636	-145.528087160043	-3.90720575648944	99.4341336629716	-3.90412477389406	99.4624397813098	-13.4494220130397	-162.08126892661	
2253000000	-11.9522021603676	-145.083673993415	-3.90567714212137	99.403744289106	-3.90463182439454	99.3453397701416	-13.4662328846705	-162.456598746811	
2253500000	-11.9974430321894	-144.770314222063	-3.91716341884645	99.2996364495148	-3.90638195537401	99.3198522388578	-13.485861271199	-162.222453266303	
2254000000	-12.0313726125676	-144.464432534734	-3.91008483215834	99.2646307360865	-3.90393270141775	99.2499053728984	-13.4808482785409	-162.272171425172	
2254500000	-12.0530799548799	-143.906310532123	-3.90532709225175	99.1927590190015	-3.90603278790934	99.3165158740812	-13.5173225045428	-162.283971858562	
2255000000	-12.1263305127238	-143.382854640377	-3.91467152457249	99.1528470898325	-3.90040244519055	99.2352397125057	-13.512259086832	-162.388921718737	
2255500000	-12.1541359644723	-143.219399895609	-3.91586434302352	99.1208114693473	-3.91001018114006	99.1260572590638	-13.5440312255353	-162.245338662563	
2256000000	-12.1451968531595	-142.910513094866	-3.89934113569993	99.0579642775645	-3.90931511844666	99.0753448109917	-13.5510467659844	-161.992609882597	
2256500000	-12.2085090515717	-142.588392088271	-3.91121608831297	99.0354118454568	-3.91223355849781	98.9743104357347	-13.5655733206868	-162.329913196891	
2257000000	-12.2487875102504	-142.181080772629	-3.9005958864656	98.9520691409888	-3.89792742070401	98.942123877974	-13.5766516329636	-162.200155221354	
2257500000	-12.2891245497393	-141.937787025721	-3.90462874985551	98.8340701705567	-3.89672434237641	98.9221143480491	-13.6240295741488	-162.154721037162	
2258000000	-12.2917532350073	-141.368904512567	-3.90040280304894	98.8117283620995	-3.90241922955568	98.9397535597791	-13.5989625493519	-162.1310614536	
2258500000	-12.373858331942	-141.216204917665	-3.90432593917577	98.8058595185029	-3.89513116919192	98.8726230800082	-13.678033140731	-161.925323664546	
2259000000	-12.4323090724364	-140.756123042973	-3.90360865039472	98.7048579765848	-3.88575470268555	98.7811604555078	-13.6396148004054	-161.874554690741	
2259500000	-12.5363798619399	-140.638048008861	-3.90691613814517	98.611022646678	-3.90382001154985	98.6788112730414	-13.6522984961156	-161.89057951912	
2260000000	-12.5189350643871	-140.475683999378	-3.90017918708257	98.5727332219492	-3.89223880338911	98.6737927898321	-13.7301055843315	-161.705045177167	
2260500000	-12.5544996911689	-140.26643062667	-3.8986070315287	98.5432254238265	-3.89576529627506	98.5548451312467	-13.6943717895246	-161.70661838877	
2261000000	-12.6333910422193	-139.977547445263	-3.89420735268317	98.4437437876375	-3.88990805910735	98.4950213029799	-13.7353242309447	-161.405864656704	
2261500000	-12.7106666653605	-139.594511896303	-3.9030040544941	98.4221672589517	-3.90155336718709	98.4433583581906	-13.7216310911202	-161.806316048407	
2262000000	-12.7273109565645	-139.541659418113	-3.89550328993501	98.2921148645328	-3.89056113812465	98.3769806569187	-13.788557657459	-161.455351640977	
2262500000	-12.8093407760145	-139.244350421138	-3.90174864332713	98.2404731368494	-3.88395252206407	98.3252568818792	-13.778804048044	-161.359476022464	
2263000000	-12.8453641335404	-138.971302104665	-3.89941374455316	98.2881192130906	-3.89255603690298	98.2286819899044	-13.8153305119062	-161.338261230643	
2263500000	-12.9326574149367	-138.772507687698	-3.89385380503705	98.1560513250302	-3.88845752366526	98.2022459845111	-13.8192135781303	-160.987324617294	
2264000000	-13.0009121868796	-138.892730530827	-3.90102726684176	98.1005816163515	-3.89710677205442	98.1087246142711	-13.8529803478928	-161.304662813144	
2264500000	-13.0603626142365	-138.668534724844	-3.88813527767508	98.0098690121444	-3.89017519004126	98.0756748085317	-13.8764585848252	-160.854563910201	
2265000000	-13.1057934374823	-138.563702993114	-3.89216533991012	97.9015350220455	-3.88631973027824	98.018365161439	-13.9015301139571	-160.668266641614	
2265500000	-13.1776930573048	-138.286401904508	-3.89031620397667	97.8604882169064	-3.89387666138498	97.8838515239788	-13.8877754828544	-160.885392318233	
2266000000	-13.2578160816664	-138.279136332457	-3.88228346144642	97.7964826691183	-3.88659510264381	97.8244355308186	-13.9207931638846	-160.851496790756	
2266500000	-13.3213903534224	-138.317406876176	-3.89368698706486	97.7791204854327	-3.88809947473097	97.7795346723178	-13.9597836363244	-160.482185128763	
2267000000	-13.3694671508295	-138.241270389424	-3.88201973431695	97.6621404901643	-3.88827772820874	97.6337310130885	-14.0012017165302	-160.004944280889	
2267500000	-13.5025686844893	-138.213406789541	-3.88724933794405	97.5906159717874	-3.89085283017042	97.6579743838583	-14.0090499942508	-159.97875071166	
2268000000	-13.5638873657318	-137.970352555874	-3.88596868847581	97.5394033798372	-3.88109556160381	97.5127650049009	-13.970106700705	-160.013457396939	
2268500000	-13.6407678482157	-137.913495303341	-3.8845411138475	97.4419431665819	-3.87989718965936	97.4984497620031	-13.9944572379059	-160.00098925054	
2269000000	-13.6607632226131	-137.936578135645	-3.88444926208876	97.4070515334155	-3.8862967771385	97.4429196634736	-14.0396113606718	-159.618181048007	
2269500000	-13.7884132187281	-138.221390275935	-3.88873093151815	97.3116661449366	-3.87382483461692	97.3400698103274	-14.0620767352802	-159.527695392488	
2270000000	-13.823563678488	-137.999496244636	-3.88746747566027	97.2447112244702	-3.88436014658089	97.2447903309317	-14.0548215535468	-159.205331573049	
2270500000	-13.9213831763871	-138.113781822821	-3.8862535886347	97.1169780924724	-3.87499133809494	97.1350537156389	-14.1206975873964	-159.406286821742	
2271000000	-14.0025653946454	-138.039736806535	-3.87939111516227	97.149535035224	-3.87794241204235	97.1061294566838	-14.1000714946128	-159.211716360355	
2271500000	-14.1022651976887	-138.228296982128	-3.88295168814722	97.0503462198174	-3.87897208615682	97.0461024660744	-14.1140031574738	-158.993478682338	
2272000000	-14.2081047200086	-138.167043143841	-3.88754793199101	96.9184702229232	-3.878010079327	96.9638952882271	-14.1645903204876	-158.754094508593	
2272500000	-14.2767674248935	-138.483390016287	-3.88932154745961	96.8323098697385	-3.87411616040697	96.807051512479	-14.1241966773883	-158.483141031085	
2273000000	-14.3828269865373	-138.51333199064	-3.87625776422378	96.7467113685277	-3.87566048857316	96.780179666274	-14.1430835987405	-158.326628516437	
2273500000	-14.3947982462572	-138.712680981412	-3.88248580705546	96.662259602223	-3.87865857289616	96.721966918503	-14.1647157486688	-158.2347814428	
2274000000	-14.5194384303719	-139.187088800664	-3.88007110255281	96.6165396395027	-3.87281021469891	96.639055394682	-14.1777685085445	-157.872504234414	
2274500000	-14.5961937478999	-139.401669072215	-3.88113610282328	96.4927404957395	-3.87780230661113	96.5437087564856	-14.1801906278862	-157.793272523487	
2275000000	-14.6683823763474	-139.590573449436	-3.87518079896994	96.43216953346	-3.86365009110229	96.4168887570627	-14.2213139832389	-157.849845574707	
2275500000	-14.7570771450333	-139.859725669706	-3.88568611858732	96.3430353921856	-3.86459106315173	96.3486146466199	-14.1793317314784	-157.517527565977	
2276000000	-14.8561022366674	-140.474781459334	-3.87424425784198	96.2732291455356	-3.87334189129719	96.2517753808794	-14.2132912311559	-157.427633275783	
2276500000	-14.9501448648742	-140.612143310697	-3.87351852664437	96.160136113424	-3.87803099438784	96.1709309577309	-14.1681312236012	-157.401776645649	
2277000000	-14.9991081551087	-140.816072460506	-3.87770853165345	96.0847537800585	-3.86839345217455	96.1436444726748	-14.2235347466032	-157.192759119024	
2277500000	-15.0978854124729	-141.215228266023	-3.87438350355185	96.0170134509251	-3.87755164932173	96.021473432649	-14.215941497011	-156.925128865591	
2278000000	-15.1638673127974	-142.219260279139	-3.87807717212865	95.8753759805339	-3.86746235494503	95.9657885503299	-14.2415350738528	-156.432355754517	
2278500000	-15.225261360426	-142.40322311578	-3.86922660709912	95.7964770488562	-3.87595400758198	95.7911637385759	-14.226424287214	-156.577972991587	
2279000000	-15.3699988328695	-142.749728000604	-3.86280312600086	95.7175155511582	-3.87828636443942	95.7173663788502	-14.2196570204618	-156.476095815831	
2279500000	-15.4083159686516	-143.462091736403	-3.86891943328276	95.6124532528616	-3.87949379342009	95.6303237954348	-14.2899784299216	-155.992703690934	
2280000000	-15.5282574656591	-143.561345825799	-3.86821969846565	95.5625299286757	-3.87477218160806	95.508238959746	-14.2163428250244	-155.859704135012	
2280500000	-15.541115854114	-144.405448691124	-3.86570375798307	95.4160401085625	-3.87075145714906	95.4327724716292	-14.2078886996901	-155.874905919635	
2281000000	-15.6796564487548	-145.067617997164	-3.86917904091532	95.3786667495849	-3.86685563332599	95.3912493379892	-14.1857032660176	-155.74276215934	
2281500000	-15.6761357757309	-145.773907842658	-3.86515762075205	95.2631745754403	-3.87053091490926	95.2744306328041	-14.198199741625	-155.302659491484	
2282000000	-15.7318754307028	-146.415556648338	-3.86221882134049	95.1627718545978	-3.87252248200518	95.184151514738	-14.1676309422181	-155.438874075093	
2282500000	-15.864579871298	-147.102356171541	-3.87690887231224	95.0584964542248	-3.86761353592431	95.074273998637	-14.211142007782	-155.096071211361	
2283000000	-15.9282161729022	-147.771732348246	-3.87737849864423	95.0190162916649	-3.87045794246676	94.9877403195884	-14.19042542939	-154.90433561632	
2283500000	-15.9767753316973	-148.235990206321	-3.86612227917871	94.9342377230703	-3.86970624299887	94.9255543576931	-14.1783580560997	-155.040628884491	
2284000000	-16.038942981218	-149.004368427161	-3.87401878539396	94.8499576238399	-3.86653456566591	94.7973964118317	-14.1209055296504	-154.617717958175	
2284500000	-16.1010935399735	-150.181591742668	-3.87364615424546	94.7055883653576	-3.86498468143484	94.6807280011452	-14.1621579764384	-154.394107972488	
2285000000	-16.1218714096637	-150.645809648144	-3.87427901554145	94.6586821126037	-3.87021538896468	94.6525790747361	-14.1357856470257	-154.460162195002	
2285500000	-16.1730477357435	-151.644209295768	-3.87060484344735	94.5403173788396	-3.87269735567287	94.578325040215	-14.0939142040801	-153.969483116035	
2286000000	-16.2622381055002	-152.334828358308	-3.88071588965147	94.3679464802124	-3.87075994210609	94.3993722545278	-14.0648638224853	-154.236089497322	
2286500000	-16.2615097968597	-153.121955820612	-3.87586836797713	94.3027160191764	-3.87042872762946	94.3158661797508	-14.0888466787393	-153.848675008142	
2287000000	-16.2389218373471	-154.473007244195	-3.86894565135187	94.2343831412495	-3.86529267708266	94.1838610217364	-14.0592707341829	-153.740542529617	
2287500000	-16.3146450133736	-155.009325563469	-3.87185279394585	94.1936929940896	-3.87604707043983	94.0837661661942	-13.9927408866089	-153.454726262464	
2288000000	-16.3447656399864	-155.659078958253	-3.87544703493987	94.0855312414851	-3.87315358243103	94.0229379827633	-13.9752022186462	-153.561740377606	
2288500000	-16.3496546703195	-156.8511309167	-3.87041154122029	93.9147198965076	-3.86434871512603	93.9146528743996	-13.9616516202066	-153.477133252275	
2289000000	-16.3606843025939	-157.901185578701	-3.87274302011451	93.8448842256216	-3.87645281935732	93.8796164990325	-13.9364992928793	-153.52923907186	
2289500000	-16.3134109750928	-159.181584733375	-3.86949936017988	93.7475196706841	-3.86799939959682	93.7504934751081	-13.930278149426	-153.232186579506	
2290000000	-16.4156906858544	-160.275494152366	-3.87439152326843	93.6489720731344	-3.87971868404143	93.6352333400804	-13.8429340947003	-153.052931733452	
2290500000	-16.360285933131	-160.876059972102	-3.87164814497464	93.5927263513356	-3.87409299948547	93.5687655377961	-13.8663360953199	-153.203746296474	
2291000000	-16.3228766188206	-161.639167169241	-3.87780136981974	93.4262840762715	-3.86421062135719	93.4670717298473	-13.886421479029	-153.16526739224	
2291500000	-16.3064179765066	-162.510398846525	-3.87319365058359	93.3937520105234	-3.88027886368271	93.3285353043615	-13.8241641991476	-153.126191283501	
2292000000	-16.2695304737293	-163.446404464722	-3.87435735430275	93.2488351515549	-3.86782847551817	93.2406661639266	-13.7787874407886	-152.863980106957	
2292500000	-16.2813874902464	-164.541590143241	-3.88283179486106	93.1889778589947	-3.87073228049037	93.1082401955778	-13.7376656781998	-152.799836433626	
2293000000	-16.2283423792302	-165.484667341317	-3.87360162031295	93.044145835505	-3.88424327752473	93.0891260999178	-13.720784459743	-152.396696825135	
2293500000	-16.1789196852034	-166.264485915592	-3.88262676522665	92.9301696672586	-3.87599903374239	92.9512213334832	-13.6662908731744	-152.775481538681	
2294000000	-16.1029854559123	-167.617813663243	-3.8870777627694	92.8339722559068	-3.88227537318416	92.8209711689232	-13.639633244334	-152.618700911272	
2294500000	-16.0190251427994	-168.214085304054	-3.88717113009734	92.7603857976449	-3.87486366021402	92.7330480894601	-13.6055739981009	-152.530116247489	
2295000000	-15.9759265279345	-169.520517673004	-3.88544580834384	92.7328565634773	-3.87086011015404	92.6216732101855	-13.6113090022339	-152.407607008227	
2295500000	-15.8913063895906	-170.038579396358	-3.87758196772351	92.5714607811176	-3.88184972608918	92.5573820975769	-13.5249827836553	-152.500220784096	
2296000000	-15.8836249189907	-170.696943054598	-3.89479816956094	92.5396989981788	-3.87808862900877	92.520094211134	-13.4835310334801	-152.351822775404	
2296500000	-15.8202565474972	-171.598496002835	-3.87781069883261	92.4016811963018	-3.87883858343251	92.4181409693525	-13.4904174317821	-152.508250829477	
2297000000	-15.7423776322235	-172.533519992146	-3.8893658792034	92.3292546072796	-3.89116819105404	92.3110581344481	-13.3923706110415	-152.36221943016	
2297500000	-15.6551134407304	-173.130686361817	-3.89323348063727	92.1538144410144	-3.88255419595985	92.1514006268765	-13.3383401583949	-152.480264237561	
2298000000	-15.5780888601762	-174.037329973298	-3.8870704342593	92.1025969563786	-3.8896413176118	92.0811579232981	-13.358233411265	-152.220084564008	
2298500000	-15.4837030207271	-174.353292277239	-3.89740171944157	92.0405584084706	-3.88120432257004	92.0326739532002	-13.2416333742484	-152.427350247131	
2299000000	-15.3698326091881	-175.212436588011	-3.90310196185147	91.9248632836076	-3.88736073216007	91.8904951943424	-13.2580970546878	-152.319477108473	
2299500000	-15.3109120244612	-175.594797767098	-3.89391554902342	91.8691626507977	-3.89051792270755	91.7987970229336	-13.1889199714652	-152.329733324344	
2300000000	-15.2116912338885	-176.440711929896	-3.89262288044895	91.7109870894342	-3.88999156049086	91.7371962503247	-13.1804856332384	-152.568254150769	
2300500000	-15.1577226924957	-177.050233175362	-3.89689231634296	91.6383586728721	-3.89396869588827	91.6860145943951	-13.1155987873967	-152.426087674122	
2301000000	-15.0384713243592	-177.480347175201	-3.90216198575361	91.6217690083686	-3.88465249499677	91.5291013287278	-13.0647506680565	-152.559401949937	
2301500000	-14.8869979820707	-178.066946094064	-3.89755142066353	91.4530607425188	-3.88854596678215	91.4118741836269	-13.0692877994481	-152.598115872888	
2302000000	-14.8489939072072	-178.429913060013	-3.89186785290336	91.4064273326789	-3.8935211072008	91.393438268492	-12.9831896966735	-152.724205820192	
2302500000	-14.7116672385949	-179.036668288123	-3.9037107159911	91.2813150630033	-3.91221577381729	91.2900026807924	-12.9479781524191	-152.558333780047	
2303000000	-14.6312690244219	-179.584787422189	-3.90780268313651	91.2404410256757	-3.90946672448232	91.2374752074602	-12.8962023384438	-152.864849286558	
2303500000	-14.5382560083215	-179.896796584739	-3.89797692454471	91.1172669527915	-3.89974060720143	91.0450803567241	-12.8362583567671	-152.771096377104	
2304000000	-14.4162745318413	179.754827184215	-3.91385597797209	90.9413051290807	-3.90871557471163	91.0082888461135	-12.7878778774905	-152.920183096357	
2304500000	-14.2918442757657	179.110501710938	-3.91488642915648	90.9359374632001	-3.91562672116451	90.9116470195425	-12.7872087112585	-152.950985161122	
2305000000	-14.2081185979142	179.085137396345	-3.90822368371701	90.8890804017992	-3.91139171190309	90.8177999417916	-12.7491712301548	-152.985181736816	
2305500000	-14.1102198786686	178.776557124549	-3.91415600253197	90.7756975009673	-3.91936313773881	90.7542739230751	-12.6670819327211	-152.86092515796	
2306000000	-14.0241249115989	178.501157752686	-3.92660673467447	90.6544427195355	-3.92156605016428	90.6778158805692	-12.6451728837047	-153.253999832372	
2306500000	-13.9004606440714	178.268520279006	-3.90237292715724	90.621163404319	-3.92177882620146	90.5543449156355	-12.6126577628945	-153.217703597261	
2307000000	-13.7836338424997	177.765759769139	-3.91115819215258	90.5491293359474	-3.92472897270621	90.4955444517201	-12.5387564855138	-153.323528799527	
2307500000	-13.6707706306702	177.752315834782	-3.91896543931585	90.4064629202489	-3.9239821359546	90.4098536030274	-12.461706155789	-153.167364882606	
2308000000	-13.5455415106574	177.244254737141	-3.91794133272079	90.3041213492498	-3.92208345503516	90.294890534312	-12.4597642035965	-153.288889304787	
2308500000	-13.4864317868957	177.379366015928	-3.93173562676552	90.2850609366776	-3.93179541675609	90.314343644946	-12.3901828430934	-153.419371500415	
2309000000	-13.3861861010669	177.407233108378	-3.92230444191881	90.233114961467	-3.92336998666967	90.2007679431708	-12.3697067478117	-153.624328705129	
2309500000	-13.2738332188481	177.146362531514	-3.9333909389272	90.1559946752827	-3.91999320195071	90.0992833473817	-12.3384114620235	-153.78458206665	
2310000000	-13.1768425672088	177.157554230637	-3.93298183027516	90.0504600596708	-3.92675614886415	90.0307072178784	-12.2908857551105	-153.767674944499	
2310500000	-13.0784533521706	176.930299014292	-3.93413314571312	89.9673144927985	-3.93494739911918	89.9804390265734	-12.2427301302023	-153.820745243981	
2311000000	-12.9861550182359	176.768767388257	-3.91867149329908	89.9477344951635	-3.93495928728815	89.8757353315102	-12.1900000278226	-153.886503342522	
2311500000	-12.9070166303008	176.719606031869	-3.93951115686136	89.887391971408	-3.94510378969369	89.837133913839	-12.135656387133	-154.300949303629	
2312000000	-12.8396712360609	176.830921118229	-3.93992712323811	89.7524235272436	-3.94175248978077	89.7102838878246	-12.0943749470823	-154.130649396864	
2312500000	-12.6623558032635	176.730769403841	-3.9416162519203	89.6474282862008	-3.94694889104415	89.6295748396166	-12.0642360625493	-154.243377741184	
2313000000	-12.6334276917271	176.807651243923	-3.94296771494856	89.5917171885149	-3.94104095419747	89.561996291184	-12.0155391935183	-154.357546698948	
2313500000	-12.5053939384824	176.617936511034	-3.94970282131702	89.5136957491869	-3.94983697735607	89.4423366225441	-11.9715172949096	-154.493059113076	
2314000000	-12.3901373159549	176.684561495678	-3.94065005307926	89.480129660774	-3.94255059214112	89.4051304133557	-11.9547964845641	-154.430668823659	
2314500000	-12.3299633313662	176.902296330659	-3.9442527648778	89.3765214049803	-3.94489914222065	89.3142820859571	-11.8919429173035	-154.770122475453	
2315000000	-12.2465265275276	177.282693664562	-3.94496383995078	89.2840596472258	-3.94325482375837	89.2314200769419	-11.8552146399021	-154.959633443257	
2315500000	-12.1433027481148	177.072216714869	-3.94738107579078	89.1762959202802	-3.95512373209199	89.2105297808428	-11.7854189444231	-155.05800975413	
2316000000	-12.0744940518028	177.135877615829	-3.95810701400404	89.1492196590869	-3.95242681760276	89.0950436024618	-11.7558254694683	-155.112756225956	
2316500000	-11.9894178926664	177.15645222898	-3.95346230183634	89.0297505035152	-3.96535316108085	89.0938060475434	-11.6913746918353	-155.313679152059	
2317000000	-11.870896080654	177.290732988399	-3.97878044861529	88.9598332023758	-3.9596842900104	89.0121922479139	-11.6789301452197	-155.42562921823	
2317500000	-11.8170235320275	177.437524014479	-3.94687595519104	88.9256784313181	-3.9716515403865	88.8961097668586	-11.6294732057449	-155.393747332802	
2318000000	-11.7279790011616	177.803640458062	-3.96980402553766	88.9542207184337	-3.96538844689028	88.903889868039	-11.6038864330552	-155.653488866695	
2318500000	-11.6745447199712	177.978913380009	-3.97248184741902	88.8051127870632	-3.96794603245629	88.8034260154864	-11.5468802368498	-155.674670389808	
2319000000	-11.606506948696	178.200166069967	-3.97129165399852	88.7621936958592	-3.96835652383981	88.7740110227021	-11.551950629272	-155.898206679266	
2319500000	-11.5309871915659	178.317721559633	-3.97047523329151	88.7618986618627	-3.97187341760067	88.6683037646099	-11.4638610641359	-156.220381412817	
2320000000	-11.4505289522599	178.473103195386	-3.97655067069172	88.6621253295317	-3.97501091064975	88.6371913248451	-11.4372435271098	-156.166996858608	
2320500000	-11.3590525357256	178.676743020873	-3.97793661019886	88.5859912880486	-3.98339533107338	88.5521793865568	-11.4333706452932	-155.944661058986	
2321000000	-11.2764799612331	179.065057350955	-3.98283029835007	88.5119331871137	-3.97894024286328	88.4856088566923	-11.3934581309201	-156.489674000752	
2321500000	-11.2100559354685	179.178753864109	-3.98302344541033	88.4964479240596	-3.98443096084087	88.4320679055237	-11.3551162647332	-156.412807842176	
2322000000	-11.1140678335508	179.42001577701	-3.98916336418185	88.3762851024178	-3.98123584036801	88.3227423439793	-11.2832208654644	-156.640416668596	
2322500000	-11.0580954262632	179.624628338594	-3.98923894874593	88.2718798704841	-3.98357672685563	88.2906920230444	-11.2768339064455	-156.647629912482	
2323000000	-11.0089068316851	179.639956352472	-3.99508435462026	88.2748884267636	-4.00008579852173	88.3497238145502	-11.2546719789555	-156.811574983031	
2323500000	-10.9140630252803	-179.669275095354	-3.9962969757899	88.2025774159551	-3.99864275681935	88.2118208709401	-11.21011906334	-157.025527388	
2324000000	-10.857229536306	-179.557086389837	-3.99687509978381	88.1101289047388	-3.99099521150892	88.1706043558775	-11.1966255527153	-156.851931746403	
2324500000	-10.8149951343121	-179.213759589903	-3.99718014975985	88.16986242218	-3.99381126217485	88.1348877994246	-11.196210929764	-157.154833801288	
2325000000	-10.7676131609787	-178.856446408304	-4.00221480070068	88.0555873245966	-3.99216713750586	88.0473748145001	-11.1063482669496	-157.39689929591	
2325500000	-10.6755971816483	-178.79948943208	-4.00114167848829	87.8915226499819	-4.01063233208161	88.0180642759211	-11.1014028595751	-157.501837879187	
2326000000	-10.6430569355525	-178.247406178675	-4.00604929164683	87.9624087953786	-4.00852031797085	87.9460812675529	-11.0561886483002	-157.499856424602	
2326500000	-10.5516987501877	-178.085028811281	-4.0034611186295	87.8827373835156	-4.00752557066293	87.8460345878	-11.0431683961679	-157.733215662687	
2327000000	-10.5046364543868	-177.849232162423	-4.01843370419695	87.7848208990965	-4.00272044547944	87.8017108927042	-11.0010545326114	-157.787009891767	
2327500000	-10.4640469959022	-177.300592376073	-4.00573824832243	87.801982236847	-4.00704440622979	87.7684578097222	-10.9814061024017	-157.787363541289	
2328000000	-10.3963520505947	-177.087156619072	-4.00199520929282	87.6992758332979	-4.0079149220676	87.7233324636649	-10.9182269335501	-158.04346387146	
2328500000	-10.3324289868166	-176.782437885635	-4.01217865922767	87.6664031423046	-4.00861600333348	87.6445505046113	-10.9430464304931	-158.185864859735	
2329000000	-10.2805024364408	-176.452053071198	-4.01805542066511	87.6520032306968	-4.00533239546294	87.5757277409525	-10.8830719375163	-158.172900431119	
2329500000	-10.2532905617387	-175.907854069766	-4.01024011519916	87.5552155226203	-4.00753795037774	87.5920892329934	-10.8793605113379	-158.303365276001	
2330000000	-10.1676859540572	-175.552973713341	-4.01092874022253	87.5006197986558	-4.00664908449287	87.5260552263343	-10.8455528215387	-158.369997264452	
2330500000	-10.1469118077573	-175.340813213327	-4.01408447803481	87.5169604740245	-4.0181753775902	87.4584297722603	-10.8867147779287	-158.600563626361	
2331000000	-10.0980705272811	-174.839050229501	-4.01901787652318	87.5490545651487	-4.00895933398941	87.3705147174278	-10.8152067717601	-158.62652179204	
2331500000	-10.0391939341047	-174.511508913953	-4.01873544596043	87.4323790477689	-4.01318635744667	87.4159314311536	-10.848677786011	-158.669649936604	
2332000000	-10.0245866091472	-174.29679325101	-4.02122030479588	87.3807568797013	-4.0234727165341	87.3274101013381	-10.7723553059852	-158.873657657986	
2332500000	-9.98580517103434	-173.84431152416	-4.02623708648174	87.3215995101086	-4.03114794199116	87.3357977906456	-10.7745457255997	-159.012759885867	
2333000000	-9.92953799276132	-173.613706293254	-4.03415660189669	87.2344574798359	-4.03219766455286	87.2465946149758	-10.7648172157801	-159.039973140805	
2333500000	-9.90322026711889	-173.095844923184	-4.03552561341619	87.2282172864722	-4.0305187517238	87.1970629540712	-10.7350984030831	-159.266454178102	
2334000000	-9.86498216956965	-172.698579850387	-4.03983434717423	87.1741537936264	-4.03363900649224	87.1543575214178	-10.7234851941808	-159.190251085839	
2334500000	-9.80206456085608	-172.281314101615	-4.03544665593992	87.0457674079489	-4.03429597699839	87.1029650282794	-10.7275018012562	-159.30344609082	
2335000000	-9.77277093480378	-171.986108486476	-4.04372705700157	87.1173314117013	-4.03256287189024	87.1078923660296	-10.7015577219302	-159.476972970909	
2335500000	-9.75205133675247	-171.664429940234	-4.04704730381677	87.0591271055299	-4.04542952689754	87.0270092642561	-10.6871920130547	-159.640661902759	
2336000000	-9.69119135727441	-171.179472602237	-4.03696410276558	87.001416592756	-4.03489953803315	86.9720452489853	-10.6811111597694	-159.62887533204	
2336500000	-9.68156458615714	-170.849896626634	-4.04705030201742	86.9060953068913	-4.04400968479385	86.9171882234095	-10.6837768714444	-159.683446743297	
2337000000	-9.63974789088856	-170.570850012619	-4.05122166091307	86.8745084501164	-4.03341807292897	86.8322034188734	-10.6483693503278	-159.70351775308	
2337500000	-9.63512573870755	-169.961222890464	-4.04581444476518	86.8839507558985	-4.03369754191767	86.8547126504331	-10.6576342435777	-160.070478035017	
2338000000	-9.6080579421552	-169.553937681693	-4.03221694811922	86.8265003324257	-4.04351070869071	86.8025448416916	-10.6238518365901	-159.956547803369	
2338500000	-9.57260321879457	-169.213570678206	-4.05993575263335	86.8083104821475	-4.03698100875327	86.8073128191972	-10.647353990843	-160.048899944954	
2339000000	-9.54177963785865	-168.756067569701	-4.05802933960865	86.7512313160168	-4.04307157190066	86.763020629536	-10.6405192366598	-160.042653750014	
2339500000	-9.52506972948533	-168.312873354395	-4.04750527208425	86.6958481001561	-4.04107968897046	86.7101992591403	-10.6259878031504	-160.112104385026	
2340000000	-9.50897621254942	-168.352845539155	-4.05427452908846	86.6449306791519	-4.05436486054994	86.6917899195646	-10.6406185578712	-160.115348741404	
2340500000	-9.4355554389486	-167.646980850231	-4.06989786012642	86.646457721563	-4.05294467251408	86.5764674989729	-10.6236144206412	-160.386812394065	
2341000000	-9.4489212335398	-167.09325967361	-4.05421050791587	86.5285335892937	-4.05348619360088	86.586991535954	-10.5900730733387	-160.423745965087	
2341500000	-9.42461144331601	-166.87672758013	-4.06634276463432	86.4975898238871	-4.05503037682045	86.5951556805492	-10.6377373849751	-160.515405093851	
2342000000	-9.3753287441832	-166.305234012057	-4.05561916475696	86.4639253676647	-4.05984744081174	86.482789176319	-10.6177776868346	-160.530702549681	
2342500000	-9.39955205677642	-165.99448717943	-4.05313487664569	86.517443329744	-4.049071161467	86.4664500251009	-10.5842677294415	-160.50925146461	
2343000000	-9.34748645368306	-165.534842642947	-4.06168430755254	86.4197494887536	-4.05186305867249	86.3767663512014	-10.5888068868132	-160.586205604831	
2343500000	-9.36193266661615	-165.227011585982	-4.07188481125946	86.3699888665907	-4.05953165545068	86.3901119671822	-10.6300705700487	-160.755589680138	
2344000000	-9.36879160030171	-164.861655127572	-4.05720063037448	86.3102591927285	-4.05740832437782	86.3087880564903	-10.5998159070664	-160.848335920345	
2344500000	-9.3265022909152	-164.521600565972	-4.06303661081976	86.2672210409857	-4.06426168449113	86.3118849896687	-10.6304067278519	-160.668984297584	
2345000000	-9.31117211452127	-164.101489216945	-4.06786650836534	86.3117278209177	-4.05333045589139	86.1866469551817	-10.6425184547726	-160.733483735262	
2345500000	-9.3104618191453	-163.409413258049	-4.06858744570048	86.2701824940666	-4.06145774518217	86.2595559260457	-10.639868074929	-160.764680047612	
2346000000	-9.29174241828723	-163.217039566812	-4.07707164912499	86.1160497073518	-4.06494900576233	86.190635022868	-10.648665208419	-160.784032920078	
2346500000	-9.28426534227589	-162.736722446015	-4.06684002845473	86.1562233710112	-4.067325458105	86.177071503678	-10.6639443845818	-160.743664972466	
2347000000	-9.27369959073188	-162.38885314367	-4.06643113060434	86.1062557115853	-4.06794939249829	86.0996652395033	-10.6515504102983	-161.18208397176	
2347500000	-9.29129355038855	-161.910342957603	-4.06979895993649	86.0749032868472	-4.06745546140074	86.0878062602431	-10.6905766992141	-160.997405466338	
2348000000	-9.2742673050953	-161.710774964641	-4.06529932587783	85.9671701582022	-4.06828122889357	86.0020609942887	-10.6427079919721	-161.075658392299	
2348500000	-9.27502629598562	-161.327870684851	-4.07297276903812	85.9745662513971	-4.06386103139124	85.9896142551031	-10.6740020645106	-161.058670252462	
2349000000	-9.28991511443164	-160.889477418876	-4.0768946957307	86.0014538939784	-4.07235930063021	85.9397895580536	-10.6905012809721	-161.146964798387	
2349500000	-9.2729361102601	-160.461799084927	-4.07575834664235	85.8794932235897	-4.07615080807387	85.8467734629942	-10.6891291104006	-161.238962639901	
2350000000	-9.27968596222577	-159.968083400798	-4.07469659048669	85.830335063186	-4.06205714319355	85.9372618928498	-10.6660808341256	-161.259371854082	
2350500000	-9.28230665414056	-159.668150512352	-4.08712041222843	85.8301205918342	-4.07239414749197	85.8264282544877	-10.7227555334736	-161.389192146694	
2351000000	-9.27817432642519	-159.394884221444	-4.0837331929701	85.8175080463363	-4.07038769998763	85.7577386282406	-10.7026818117071	-161.347995087079	
2351500000	-9.2895740512012	-159.010371134615	-4.08121367051043	85.7465725040601	-4.07050477433236	85.7386403747864	-10.7407765047528	-161.267229709482	
2352000000	-9.26990146212115	-158.521114141355	-4.07121637054775	85.6968538472281	-4.07240040462289	85.6563725416571	-10.7529547585946	-161.273295241767	
2352500000	-9.31288312191999	-158.239441659843	-4.07130636482972	85.6157125039387	-4.07360145095304	85.7190665190818	-10.7918842252669	-161.399076838098	
2353000000	-9.29802025781533	-157.845947382119	-4.0751574391184	85.6274392378313	-4.08272743235315	85.6368605496877	-10.7735606673659	-161.465144869415	
2353500000	-9.31831315816315	-157.450726393255	-4.07784831366267	85.6314722686933	-4.06918503318107	85.5793202178101	-10.7851250644256	-161.522698237464	
2354000000	-9.30080095993538	-157.025561085448	-4.08301671574833	85.6029185628636	-4.0719846179458	85.5290691180428	-10.8168244192919	-161.415136876288	
2354500000	-9.32380899763633	-156.868240450913	-4.08273354797859	85.5223758475861	-4.08283398722748	85.5213526881717	-10.8156087983416	-161.534967215189	
2355000000	-9.31050926533574	-156.558255041354	-4.07619342265171	85.4435518684554	-4.07433607520331	85.4390787445914	-10.8374659929472	-161.493015564443	
2355500000	-9.37019794825477	-156.116418398919	-4.07802156081935	85.4624008929124	-4.07357292189974	85.3942913382181	-10.8604705541073	-161.525810764553	
2356000000	-9.39720463702581	-155.784095564265	-4.08632169261185	85.3947655524144	-4.07608120838762	85.3912286152994	-10.8908453573796	-161.526166265944	
2356500000	-9.41844325474495	-155.524367581054	-4.09562147363355	85.347509921678	-4.08234679708438	85.3106203108033	-10.8899200674528	-161.596695787258	
2357000000	-9.42628048625555	-155.150492579177	-4.07918100272238	85.3240002246678	-4.08346587173455	85.3209144207656	-10.920364444921	-161.670716074651	
2357500000	-9.44848555460525	-154.927488473594	-4.08419359001254	85.2691860197038	-4.07940789880108	85.2526522960573	-10.9269433404261	-161.691676829632	
2358000000	-9.43517215623866	-154.536989998935	-4.08894474657024	85.2008518231619	-4.08437534902702	85.1966962270963	-10.9521098502579	-161.812244568606	
2358500000	-9.46742553130291	-154.242967325572	-4.09247164659492	85.1569153356265	-4.08225016345454	85.1669833229785	-10.9642644532747	-161.638911451699	
2359000000	-9.49395624835533	-153.828162488436	-4.07214540456437	84.9978219748624	-4.07976591507088	85.0913869103702	-10.9671843904885	-161.663853799108	
2359500000	-9.52047481515956	-153.659793298176	-4.09002464668163	85.0496752953755	-4.08281675593188	85.0893377054984	-11.0118202225316	-161.707150621728	
2360000000	-9.51632138334026	-153.324247747756	-4.08424651793205	84.9767797144104	-4.08363395363153	85.0616170570532	-11.048579845204	-161.8187191322	
2360500000	-9.58658304570982	-153.122631385502	-4.07998835411664	84.948139484586	-4.08157866698749	84.956176283022	-11.0148039508959	-161.633664748939	
2361000000	-9.60487293390811	-152.750750543762	-4.09060688100522	84.9193599780876	-4.0787705160804	84.9329787220879	-11.0508040330698	-161.820175132986	
2361500000	-9.6265927988199	-152.422877714287	-4.08098822034763	84.8678807786995	-4.08743765371034	84.8539661079461	-11.0724040647298	-161.559456849098	
2362000000	-9.66836863562723	-152.194623543268	-4.08191110888174	84.7939707451504	-4.08279796517749	84.8539670034889	-11.1044162097425	-161.825267657674	
2362500000	-9.67742178776547	-151.952490543009	-4.08488389395895	84.7887481098387	-4.08165094665663	84.6985376031184	-11.1187822226448	-161.622467641151	
2363000000	-9.73687143323397	-151.738640335507	-4.078937453026	84.7137924273999	-4.08316506732093	84.7349121433619	-11.1522360788471	-161.62565456806	
2363500000	-9.78213246614526	-151.441538376088	-4.08800577524497	84.7068299421974	-4.08625256270466	84.7242099792316	-11.1647826013105	-161.671323130506	
2364000000	-9.79586841805751	-151.293924452348	-4.0829752207241	84.6092600502467	-4.08550997733348	84.6563738028891	-11.1821662533583	-161.708784015326	
2364500000	-9.82020346519408	-151.198869838498	-4.08340864684488	84.5806292156207	-4.08110769086883	84.5418537713967	-11.2189237536083	-161.581290738289	
2365000000	-9.86915951213506	-150.76007046049	-4.0856620323294	84.4936743449305	-4.08079756189725	84.5074414131895	-11.2119394822941	-161.820297951312	
2365500000	-9.90142205002748	-150.634816702925	-4.10000520610428	84.4307780688635	-4.08496177144971	84.4905717486451	-11.2507755545837	-161.628819108621	
2366000000	-9.9261909253624	-150.465313787079	-4.0940809630328	84.4035893944514	-4.08587369383657	84.3701332875251	-11.2362848907527	-161.564370922781	
2366500000	-9.99204113707037	-150.253671549737	-4.09372084792991	84.3292695690127	-4.08137836064156	84.3842368174895	-11.2725401817562	-161.597487795268	
2367000000	-10.0427089689287	-150.146423883493	-4.08627878302594	84.2858257469944	-4.08424249539665	84.2851087397928	-11.2964614107719	-161.662879911069	
2367500000	-10.06193114419	-149.969426882212	-4.0902970588798	84.1971932018698	-4.07516612822787	84.1881696659179	-11.3369474924492	-161.540564068499	
2368000000	-10.1011407849669	-149.745901499702	-4.09140693627236	84.1663640632981	-4.07595124720401	84.2275596043399	-11.3219843138641	-161.652365936346	
2368500000	-10.1525006860831	-149.833831597849	-4.08384756588598	84.1064650752962	-4.07627841497044	84.1291671239982	-11.3741593838044	-161.547978328611	
2369000000	-10.2004862491528	-149.57139900858	-4.08561693396997	84.0038347390723	-4.08294759904387	84.1074714813494	-11.3775549009723	-161.509517209361	
2369500000	-10.2839761347299	-149.490387944879	-4.08222831834798	83.9717809937752	-4.07525588328337	83.9511706862404	-11.3923189016033	-161.611799149562	
2370000000	-10.2891709079258	-149.384346345605	-4.0816012269155	83.945325011378	-4.08135084906621	83.8364940736921	-11.4028749445846	-161.659613316016	
2370500000	-10.3544599463257	-149.320147907652	-4.08212689910394	83.8635616401177	-4.08044973374558	83.8707248429236	-11.4167357749895	-161.779104404735	
2371000000	-10.3964696093569	-149.24702667396	-4.07229827060512	83.7911216076586	-4.07393881520079	83.7796088806382	-11.4250760226713	-161.357586491036	
2371500000	-10.4351389201	-149.077262179934	-4.08411258340361	83.7527589117855	-4.0887984657039	83.7137579764113	-11.4887071550753	-161.504695964436	
2372000000	-10.5255527570035	-148.963633303409	-4.07348370348842	83.6094123366576	-4.07921689872467	83.6410143370974	-11.4879863348319	-161.638089277853	
2372500000	-10.575202811257	-148.954761752653	-4.07721331561106	83.5430119862708	-4.06696598857866	83.6128446903385	-11.4899857695808	-161.410823706516	
2373000000	-10.6186288441704	-148.875208414546	-4.08371529789794	83.54449118478	-4.07909026386519	83.4725534604246	-11.4849884162784	-161.680139086222	
2373500000	-10.6791931942809	-149.004419963138	-4.08735144894033	83.4928086169626	-4.0801770292968	83.4533052892222	-11.515829191274	-161.446714116413	
2374000000	-10.7141074037607	-148.979980472042	-4.0822733509971	83.4243765235461	-4.07367780818552	83.3985314749608	-11.5159225607096	-161.402932966209	
2374500000	-10.7805777446612	-148.783405410807	-4.08363937808434	83.2883711913687	-4.07496819478042	83.2971050925546	-11.5351082410917	-161.462916753718	
2375000000	-10.8474690404437	-149.110147319877	-4.08424273667534	83.1641929689695	-4.07671648069593	83.2167693746192	-11.5490337933015	-161.452043576983	
2375500000	-10.9147825178758	-149.09356148028	-4.07657648084291	83.0606861183729	-4.07508564315334	83.1300655925137	-11.5507965798442	-161.575458802811	
2376000000	-10.9753177278449	-149.141153050974	-4.08905372147412	83.0216239567084	-4.0837211023847	83.0717052399183	-11.5574727179749	-161.413180915162	
2376500000	-11.0218178218184	-149.156803510928	-4.08024278854182	83.0197366699514	-4.07846487720254	83.0394770544117	-11.5618376583812	-161.344897803792	
2377000000	-11.1010638188909	-149.347720193288	-4.08932082605741	82.9312307081665	-4.08027865429833	82.8626899031604	-11.5561592201265	-161.541183888409	
2377500000	-11.1282956375674	-149.306091949301	-4.07354385344917	82.8549996676417	-4.0695130515939	82.8772022501361	-11.5851719933878	-161.391914261472	
2378000000	-11.2150395134161	-149.376708639989	-4.08123905854633	82.8120787765052	-4.08240432487733	82.7731239871704	-11.5935500762566	-161.333125253106	
2378500000	-11.2617826413392	-149.71348779543	-4.07179595947568	82.7013555925116	-4.06922950190347	82.7306549964225	-11.5888293780257	-161.241613139161	
2379000000	-11.3519954461448	-149.679648725125	-4.07609774906772	82.6415321040979	-4.07729715418324	82.5648605624198	-11.5855972011174	-161.348922100948	
2379500000	-11.4144043526119	-150.131698882731	-4.07048784760254	82.5623696637122	-4.0693077026347	82.5488515595644	-11.5995471883208	-161.233213679311	
2380000000	-11.4351927951655	-150.10197599635	-4.07249644067788	82.4375530166502	-4.06864016432299	82.4420174412805	-11.5804661167884	-161.181012670389	
2380500000	-11.5066463744676	-150.322227937509	-4.07130381267472	82.3657553302173	-4.06229477632554	82.3933701581373	-11.5967673982187	-161.031635804227	
2381000000	-11.56195863233	-150.565830823143	-4.07482143981087	82.3071750318622	-4.08185784816342	82.3278861652203	-11.594919908276	-161.193883422417	
2381500000	-11.6414391846551	-150.757657761093	-4.07242262368116	82.2133906123911	-4.06941855293996	82.2314821187826	-11.5806641426184	-161.213949014734	
2382000000	-11.7012184671748	-151.08518423087	-4.07388013740834	82.0167810518634	-4.07318090260885	82.1264466998535	-11.5886951586714	-161.310240615494	
2382500000	-11.7357734755832	-151.357275152096	-4.06666824772904	82.0194678291931	-4.06965942875677	82.0188237268872	-11.5882225087836	-161.449106482264	
2383000000	-11.8284412651171	-151.246328721951	-4.07647337054816	81.9394114941034	-4.06449803538028	81.9575541880661	-11.596547541053	-161.330791603744	
2383500000	-11.8724035656704	-152.054890348029	-4.07972557752852	81.8315164718366	-4.05570274305677	81.8899473507965	-11.6259188331948	-161.340629767273	
2384000000	-11.9385667204052	-152.304701438044	-4.06717597680419	81.742514917888	-4.06710151430535	81.7549803859644	-11.6075460932206	-161.278434877422	
2384500000	-12.003415717254	-152.656327075632	-4.07016226613536	81.699168034408	-4.06946079184091	81.6745390240527	-11.5689255574005	-161.194450309558	
2385000000	-12.0179709252408	-152.972075965475	-4.07274443463077	81.5890167550489	-4.0544858187999	81.647363739263	-11.5984467682243	-160.962791230022	
2385500000	-12.1177229512852	-153.321578627467	-4.06888158863087	81.4886646300344	-4.07146588514393	81.4862862352398	-11.5287371650898	-161.287853156488	
2386000000	-12.1491430463748	-154.082912315035	-4.06598676351125	81.4148341954756	-4.06527639764306	81.4263316268292	-11.5405899957223	-161.302582867066	
2386500000	-12.2050442595015	-154.080183583449	-4.07429214532161	81.3200092239323	-4.0569505364989	81.3023466627209	-11.5337459561595	-161.120460325535	
2387000000	-12.2595118014954	-154.724695041517	-4.06795488420095	81.1752054504869	-4.06531175347374	81.2582779081005	-11.4802666201775	-161.236946805477	
2387500000	-12.3286159196773	-155.072529264799	-4.06654869429964	81.1521641651052	-4.07037483485326	81.1323655761076	-11.4947822147709	-161.277951938557	
2388000000	-12.3705332803118	-155.573869255035	-4.07435147870479	81.020673483265	-4.05850733957967	81.057131674535	-11.5067081712279	-161.253519119047	
2388500000	-12.4165853337999	-156.211530216939	-4.06232750759007	80.930266224122	-4.07454395033666	80.9578630726162	-11.500331862063	-161.201641222262	
2389000000	-12.4626613168376	-156.851237644045	-4.06552349319296	80.7547216972716	-4.06310923534013	80.8818402604059	-11.4512688453072	-160.971541928711	
2389500000	-12.5162809785334	-157.305614910253	-4.06818921512864	80.6771145871657	-4.06435667024954	80.8040467423767	-11.4293045487457	-161.036992841701	
2390000000	-12.5748991091291	-157.411546965554	-4.06669161500514	80.6341043780369	-4.06539388606672	80.6826633204653	-11.3990135706015	-161.266016014361	
2390500000	-12.6119445774656	-157.894696532672	-4.06921784437435	80.6009345243641	-4.05944933117785	80.5505370764004	-11.396022087835	-161.202080820883	
2391000000	-12.6066484331227	-158.720369238875	-4.07866888690078	80.445775199079	-4.06487464080715	80.4739088185213	-11.3782523270309	-161.204742753119	
2391500000	-12.654223068353	-159.31996460567	-4.06603759303899	80.4042565727229	-4.06116609362757	80.4282151275366	-11.3628361196875	-161.177990209232	
2392000000	-12.6590161618614	-159.804400948004	-4.07557758602692	80.2688318567378	-4.06159189691262	80.2842037779763	-11.35811772268	-161.235334806418	
2392500000	-12.7370607574983	-160.742175521528	-4.08040267824614	80.2056287497536	-4.07174974625965	80.141258114307	-11.307560503049	-161.310946055171	
2393000000	-12.732408946972	-161.17792124441	-4.0773260765918	80.0256378362416	-4.06628657259445	80.0558805776644	-11.295333662313	-161.235085787317	
2393500000	-12.7754810865482	-161.738618044989	-4.07168233426003	80.001272452585	-4.07392252684472	80.0264067980666	-11.2947964687611	-161.292625466097	
2394000000	-12.7551967162332	-162.388690093304	-4.07166676867108	79.8532508988247	-4.06154660731427	79.9124110978633	-11.2305468318803	-161.214141732293	
2394500000	-12.7900638355807	-162.975426091808	-4.07033494703709	79.7818086855828	-4.07838407297796	79.8205489341553	-11.2642946784424	-161.238737778758	
2395000000	-12.8088031332976	-163.486151080631	-4.0750625033374	79.7023868662537	-4.07266183021721	79.7493148430015	-11.1909656867764	-161.299687895825	
2395500000	-12.8022991666465	-164.429587462045	-4.07375664767742	79.581405839225	-4.06906770092715	79.6614295520412	-11.1612644214408	-161.235495361115	
2396000000	-12.8211209466849	-164.93321106699	-4.07809920861658	79.5132848515754	-4.06854637011401	79.4613221688031	-11.1759609055643	-161.206617963508	
2396500000	-12.8402330619132	-165.620131163885	-4.08023400338022	79.4011872904511	-4.08033787896317	79.4135454346978	-11.1102880968598	-161.308610425687	
2397000000	-12.8497690184333	-166.225816562225	-4.07755246271034	79.3075282835421	-4.07177980381854	79.251382913944	-11.0621326843109	-161.384872517525	
2397500000	-12.8888890526671	-166.89962209132	-4.07264969582845	79.161450671732	-4.06954141052407	79.1769592268761	-11.0595864101162	-161.175118496934	
2398000000	-12.8086680746569	-167.457183153374	-4.07861786379247	79.0978896899158	-4.07212749160775	79.1641929188992	-11.009820421837	-161.552442627291	
2398500000	-12.8334286479619	-168.100313341002	-4.08403026391676	79.0147517210531	-4.07910359762005	78.9767066282347	-10.9731846637786	-161.499830384578	
2399000000	-12.8122633472568	-168.759382192549	-4.0786708970365	78.8739952919066	-4.07485451543396	78.9431842087198	-10.9479971814007	-161.552906459469	
2399500000	-12.7666558633992	-169.590744509305	-4.08745724696851	78.770446384169	-4.07355424385748	78.9081556331519	-10.9495838447857	-161.466675731008	
2400000000	-12.7517347436872	-170.116944776803	-4.07600258328056	78.7270023650059	-4.07600153127952	78.7118752782049	-10.8924682732004	-161.630063185685	
2400500000	-12.7131598418167	-170.707376245804	-4.07995087762236	78.6391479973172	-4.07487947576857	78.6841145740683	-10.8666118285523	-161.618727242868	
2401000000	-12.6664492647589	-171.376083878286	-4.07933279258456	78.5655322304543	-4.07424543587596	78.496864328554	-10.8236304479582	-161.600222180854	
2401500000	-12.6932558673516	-171.888795344429	-4.09047547243006	78.4407085643399	-4.07177658890958	78.4363894541648	-10.7497639766317	-161.529684258055	
2402000000	-12.6376961582182	-172.601756667438	-4.07497384102717	78.2319915509383	-4.08963658397149	78.3530556535751	-10.7414945418628	-161.587560865126	
2402500000	-12.6275815376172	-173.093086623532	-4.08619991330522	78.1971138186388	-4.07491950995615	78.2833076729072	-10.6983928026743	-161.652280138455	
2403000000	-12.5378880296588	-173.917220581377	-4.09452374785682	78.0556533213489	-4.09152614343161	78.1442574635346	-10.6650263105748	-161.690460598751	
2403500000	-12.5479862389105	-174.784642183404	-4.08181809804757	77.9906895305791	-4.09035679545228	78.0367650910084	-10.6381498749537	-161.676447190311	
2404000000	-12.4696069628685	-175.114910953641	-4.08853224349875	77.9181069062044	-4.08027320727364	77.9756836973529	-10.6008410929463	-161.816250231404	
2404500000	-12.3909700171491	-175.616311360021	-4.10176352432225	77.7969363014834	-4.08139145909072	77.8424074668667	-10.5711434780389	-161.839537473211	
2405000000	-12.3806551370637	-176.048257737884	-4.09092764115217	77.7462485849895	-4.0919599313273	77.7679276617791	-10.5391200333163	-161.712042317349	
2405500000	-12.3625226193014	-176.729010282905	-4.09477785207473	77.6467518023593	-4.09578808525105	77.6504592071305	-10.4831077378739	-161.814298688254	
2406000000	-12.2712731942266	-177.03685439791	-4.09481145594339	77.5629911806705	-4.09199266988625	77.5305383946453	-10.4584471807007	-162.004247692988	
2406500000	-12.207614344159	-177.191404722582	-4.10331683007163	77.45063640911	-4.09616001265039	77.5145971093297	-10.4305718878928	-161.972386141578	
2407000000	-12.1843931986626	-178.281527973091	-4.09796534499832	77.3818954021436	-4.08996043227363	77.3637980513265	-10.3834126969916	-162.022254780264	
2407500000	-12.0939955106114	-178.479430558439	-4.09124246279809	77.2853223282063	-4.10426488812964	77.2525627921731	-10.3504631174702	-162.037437348997	
2408000000	-12.0756583189988	-178.83141384703	-4.10398506038057	77.1833191061925	-4.10121148265894	77.13538298406	-10.3007299792576	-162.018343423911	
2408500000	-11.9741079121751	-179.144777872805	-4.09974368673601	77.1480081583633	-4.10303191207334	77.1387888967187	-10.2675982247723	-161.990538235388	
2409000000	-11.935142151658	-179.732954392949	-4.10128339269244	77.0629939636421	-4.10369669340044	77.0386502888393	-10.2249519724324	-162.209193019222	
2409500000	-11.8614583353638	-179.976060585855	-4.10737374896129	76.8799404742308	-4.09924859017412	76.9084321812559	-10.1514311637872	-162.270553858463	
2410000000	-11.7927884563753	179.583949455721	-4.11277076363786	76.8307282601638	-4.102389698091	76.8506031023414	-10.1393984848281	-162.251433697131	
2410500000	-11.7253995770346	179.276928326139	-4.10307334172658	76.6950294548807	-4.10729749150896	76.6872107432012	-10.1079923523776	-162.258677194235	
2411000000	-11.6366777808404	178.81216230327	-4.10384440823885	76.7099170837303	-4.11064718423241	76.6221093369701	-10.0814700522549	-162.377921879382	
2411500000	-11.6260082611101	178.684660693995	-4.11758241096306	76.5196735689902	-4.110808157517	76.5759293931661	-10.0321457669318	-162.449005869522	
2412000000	-11.5310418446211	178.206780766586	-4.11641452046669	76.4180168334797	-4.11032087084432	76.4003824377792	-10.0066891346334	-162.50337155736	
2412500000	-11.4515421416703	178.0453258114	-4.11816867006184	76.350778162265	-4.10779684371493	76.3941562444612	-9.96108105209963	-162.443927600069	
2413000000	-11.3912922538253	177.87480872877	-4.11649405078662	76.2840564506357	-4.10996932586187	76.2955576544155	-9.94945169421504	-162.481069358629	
2413500000	-11.3302108966162	177.608106164566	-4.12166545105182	76.2346612821937	-4.11331843913706	76.2108756953156	-9.87955417105391	-162.452157045478	
2414000000	-11.2339813813065	177.154720650859	-4.12175401413711	76.0972822492462	-4.12089976925882	76.0983177974717	-9.85152711209314	-162.743972992954	
2414500000	-11.182733270781	177.02072521544	-4.12408737840374	75.9581038880059	-4.12645258918343	75.9939663958108	-9.81113640799606	-162.591632221591	
2415000000	-11.0856770669353	176.846878229206	-4.12986168513619	75.904243136904	-4.12418365199414	75.9286928100022	-9.76281701577511	-162.620010944033	
2415500000	-11.0139389918406	176.840781700947	-4.13701496261733	75.8370448576688	-4.12266128900456	75.8705005859275	-9.74137761621444	-162.845139514244	
2416000000	-10.9711690408741	176.687780074997	-4.13794748626775	75.7127266069728	-4.12854048390844	75.7768522399562	-9.69450104467162	-162.727149113022	
2416500000	-10.8839783564851	176.537064267049	-4.13216071494488	75.6595881055697	-4.13279989757677	75.7546598713942	-9.65903016565568	-162.712243488651	
2417000000	-10.8387176505325	176.336556739223	-4.13634662854285	75.6476003258575	-4.1363642275149	75.6557228940394	-9.62738604358354	-162.732777107698	
2417500000	-10.7626105315028	176.285048709855	-4.13860150391737	75.512132605116	-4.1382709255744	75.5381591209269	-9.59914360089916	-162.892983898937	
2418000000	-10.6908809301578	175.98819091734	-4.14415589446358	75.4673087596528	-4.14315305901161	75.5046263088646	-9.55950486756655	-162.932122026315	
2418500000	-10.5938163936608	176.082445635038	-4.15234570510176	75.3833790634496	-4.14556855871541	75.334735532147	-9.52141411182333	-162.894524363899	
2419000000	-10.5557769936906	176.061629523413	-4.15174939158074	75.26737108633	-4.15200270523033	75.3621022574277	-9.4973242473965	-163.003183091783	
2419500000	-10.492936543195	175.966071345038	-4.15276810053122	75.2421131719824	-4.15417803462997	75.1884752244003	-9.47478252151605	-163.039633946883	
2420000000	-10.4117832413606	176.078040231565	-4.15631097732694	75.1230861886365	-4.14503652120865	75.1531157491414	-9.43560856339136	-163.026502183358	
2420500000	-10.3364399841491	175.942243302772	-4.14884939233018	75.1246956757327	-4.15877633123723	75.0725589952054	-9.39343752670738	-163.170690661399	
2421000000	-10.2771630529633	176.068094288332	-4.16178534062302	74.952725514678	-4.15276575408915	74.9617040983249	-9.35904923820275	-163.186935584806	
2421500000	-10.201815399296	176.125255882271	-4.15764868972251	74.9406611638707	-4.15655983483916	74.8970927746358	-9.34207863404987	-163.169206437917	
2422000000	-10.150111685557	176.12828248828	-4.15993254331716	74.8797432398267	-4.16024320928207	74.8611188586781	-9.31493952881352	-163.104720970911	
2422500000	-10.0749095010094	176.038101263452	-4.16014601853711	74.7928441230546	-4.15935246024307	74.7885577476786	-9.26911361243869	-163.254480206102	
2423000000	-10.0040437409782	176.094888158459	-4.16262430103713	74.690304201277	-4.16243098523339	74.7438991339498	-9.26463916526895	-163.239200071493	
2423500000	-9.95546689049289	176.061978611935	-4.17147487424041	74.6179563878661	-4.16942052714815	74.7003680463856	-9.24611461144651	-163.41907490268	
2424000000	-9.87685133484346	176.081665934819	-4.17004539562808	74.5999050611222	-4.16648319666331	74.5817406080163	-9.19801538350852	-163.239535790764	
2424500000	-9.83418503486555	176.37758103147	-4.17435670427592	74.5525289187223	-4.17654442516588	74.5540688682461	-9.16674542858301	-163.222243392324	
2425000000	-9.75594945183441	176.29605204946	-4.17923272508206	74.4336496672925	-4.17265160089797	74.426612990012	-9.16192335358137	-163.468719098836	
2425500000	-9.70321715991908	176.496887596406	-4.18304850397425	74.356887971847	-4.18953571081274	74.2867687223068	-9.13558343771315	-163.563912162065	
2426000000	-9.63417479231017	176.620139996753	-4.18008572177493	74.3086221299483	-4.18591953019195	74.331084766746	-9.11229194363493	-163.68298992187	
2426500000	-9.54249375822844	176.555014233701	-4.18121562740144	74.2226042335854	-4.18066053247928	74.1805326851884	-9.07556338777563	-163.713548736165	
2427000000	-9.53629307481052	176.801551880451	-4.18587749095587	74.2094802373942	-4.18591617682022	74.2132636168432	-9.0805067693609	-163.702660120436	
2427500000	-9.48466996277892	177.053979712596	-4.19273211076631	74.0523812751264	-4.19310090597316	74.1121711787807	-9.0392931384662	-163.780920076288	
2428000000	-9.39130547678833	177.068410647475	-4.20128967698148	74.0042252202567	-4.19073153501939	74.067653401107	-9.0337649888994	-163.655877451493	
2428500000	-9.35394576731889	177.460377934741	-4.19002176606534	73.9997682352896	-4.18613755742739	73.9749360153145	-9.00593051564673	-163.727620575794	
2429000000	-9.27715520753936	177.561909496836	-4.19796217906552	73.8597097688509	-4.18109849254051	73.8959667795691	-8.96326939759904	-163.75130358475	
2429500000	-9.24321913685835	177.524879928086	-4.19549816892623	73.8450106347455	-4.1974438575658	73.8128015909229	-8.96741645464206	-163.78132980208	
2430000000	-9.17950349876145	177.804749657721	-4.18711217391644	73.7094910283783	-4.19514012907341	73.8042622125483	-8.93843076648654	-163.89369480692	
2430500000	-9.14113188249395	178.065864496089	-4.19870857407697	73.7775287263857	-4.2061362652446	73.7389760987329	-8.9412225438032	-163.846159914647	
2431000000	-9.09686730451736	178.455150695678	-4.1944129391273	73.6257609653124	-4.19557189884788	73.6493326759117	-8.90106360514313	-163.957635409093	
2431500000	-9.01618719334384	178.526799575931	-4.20722985807518	73.5981838015619	-4.20771977661038	73.5841349177944	-8.88708724260608	-163.930154539742	
2432000000	-8.99340749524096	178.649211859465	-4.20646451336688	73.5531353721837	-4.2108055280593	73.5722173549191	-8.90791923718854	-163.913549972332	
2432500000	-8.95455480073707	178.936600962348	-4.22508233471883	73.4343907970916	-4.21077287299458	73.51887998035	-8.85661928768861	-164.010781878582	
2433000000	-8.88697441403479	179.054738799682	-4.22132540289286	73.4481185591649	-4.21712344367206	73.4257283291469	-8.84561754619546	-163.912654239579	
2433500000	-8.85924803087186	179.352409534947	-4.21391702807852	73.4441510095103	-4.22211023402653	73.4329726465834	-8.84921716029442	-164.071016013464	
2434000000	-8.80225993093158	179.647033886766	-4.22291755455667	73.3845316097278	-4.21633583573213	73.3878026603426	-8.84187371482133	-163.866146685037	
2434500000	-8.76135145597714	179.986441419734	-4.22162185017302	73.2828601432745	-4.21990235212438	73.2747452211689	-8.82608143113878	-164.011978532814	
2435000000	-8.68900167312767	-179.850244654174	-4.23084071060346	73.202418610674	-4.20842186902309	73.2259544277424	-8.7871564263066	-164.279886346302	
2435500000	-8.67363603059236	-179.737450425986	-4.22436790289129	73.138805512161	-4.22797319927996	73.168857777037	-8.79444370569924	-164.037021224108	
2436000000	-8.60521568854015	-179.232329045041	-4.2372143163018	73.1713683291047	-4.22438556360571	73.105977607159	-8.80399716666508	-164.236876259299	
2436500000	-8.57027846346379	-179.068707702541	-4.22554044433126	73.0809572837063	-4.2221786112831	73.118254554525	-8.79990872348275	-164.149507297311	
2437000000	-8.56235106637241	-178.853300869459	-4.2348617202929	73.0432513560248	-4.22999824594934	73.125712511256	-8.78141437506336	-164.043457404028	
2437500000	-8.52049180318598	-178.572992208587	-4.23767684317713	72.9693668487173	-4.23199296168979	73.0038410454093	-8.78333022589956	-164.219309452071	
2438000000	-8.49600630291806	-178.232055538431	-4.24384046281323	72.957921452123	-4.23159400031537	72.9749777948392	-8.76910044963811	-164.192883845676	
2438500000	-8.4580550263972	-177.963417363214	-4.24400264857402	72.8831953214281	-4.2441454354498	72.9490305544346	-8.77041117767378	-164.383101554456	
2439000000	-8.41273764808666	-177.719697438616	-4.23796698479675	72.7899856439564	-4.24603842369077	72.8299734254855	-8.77030758611334	-164.263609992926	
2439500000	-8.36968212973355	-177.441189814011	-4.24519558595171	72.7588963177824	-4.24199850278219	72.7513056230285	-8.76354914118808	-164.348584219682	
2440000000	-8.35422493412344	-177.095249705017	-4.24682741774505	72.6932778479823	-4.24710415011382	72.7705852643647	-8.73046292567644	-164.536024859477	
2440500000	-8.31798923200727	-176.845832951699	-4.25201574428409	72.685039050017	-4.24103697869057	72.7540441441214	-8.75460132297182	-164.343742186157	
2441000000	-8.28755692709768	-176.608099262122	-4.25927728957352	72.6711736027804	-4.25554697709884	72.6890402091969	-8.78088307605155	-164.273228193819	
2441500000	-8.25023830992883	-176.240111595378	-4.25837032407665	72.6614458897991	-4.25882769798961	72.6290798731527	-8.77514248478092	-164.415937022767	
2442000000	-8.24017321955992	-175.912224387275	-4.26100500636352	72.5921214300852	-4.25358050078058	72.5705042648542	-8.75427005231605	-164.420307460444	
2442500000	-8.22571845136478	-175.662852576431	-4.26061392947313	72.5511325430961	-4.26471512540637	72.5166803378692	-8.78043910834189	-164.530907750131	
2443000000	-8.17303434655982	-175.346518660549	-4.26293137961278	72.4731715601998	-4.2569613886809	72.5471652076889	-8.78199712382801	-164.476494297283	
2443500000	-8.14312126400119	-175.049403011709	-4.27642999362474	72.4351328808951	-4.26157788525632	72.4227478261759	-8.78131016997631	-164.461102852309	
2444000000	-8.12319440298015	-174.668433841101	-4.26601585158728	72.4126856283338	-4.26207235669711	72.3800143255253	-8.77720571943289	-164.499073205657	
2444500000	-8.11321814554295	-174.37967167529	-4.26726237623199	72.3093620795865	-4.26688291621823	72.4056617851493	-8.79849001162481	-164.473540806787	
2445000000	-8.07804093637859	-174.032882781841	-4.26954293571869	72.3083758766924	-4.26292234666907	72.3478224799672	-8.7709354721006	-164.502328829327	
2445500000	-8.06667776079385	-173.550344587076	-4.26614418416359	72.3490556489772	-4.25951672249222	72.259720001689	-8.79212680449969	-164.67484503394	
2446000000	-8.05000495401044	-173.433096165477	-4.27242045320406	72.224080815256	-4.27552557285262	72.295282122141	-8.80686154403354	-164.487642493616	
2446500000	-8.03134127727893	-173.108865230154	-4.27923237070276	72.2309633939619	-4.27491874592729	72.2320060061421	-8.80650727718923	-164.661906909806	
2447000000	-8.02273428451011	-172.770476425101	-4.27930704715899	72.1817333332711	-4.27740246213502	72.1848049195795	-8.83662581108202	-164.587288811389	
2447500000	-8.01479835808757	-172.414807078035	-4.28569121794904	72.1637383953084	-4.28237806494167	72.129468151352	-8.82548946401357	-164.663088261266	
2448000000	-7.9955230119994	-172.111359624026	-4.2886408837678	72.1644586101057	-4.28878464094576	72.1229412072747	-8.84068207038976	-164.759849627697	
2448500000	-7.99238102363941	-171.586758720285	-4.28091224824005	72.1365776336998	-4.28707581511193	72.0577185650751	-8.88253421024208	-164.816526277114	
2449000000	-7.96920469341999	-171.42202897646	-4.28942951508603	72.0632090251838	-4.28688018516412	72.0604961128947	-8.87551544230174	-164.718534150946	
2449500000	-7.93767355154257	-171.170644051435	-4.29546567184337	71.9522103576276	-4.28513649795464	71.9969171556794	-8.8833205056339	-164.763025019367	
2450000000	-7.91971060832612	-170.852373706192	-4.28584903094342	71.9772527755926	-4.29303824045539	71.9661000172144	-8.90680000411598	-164.915485632	
2450500000	-7.93141652302644	-170.570597779828	-4.29291968113143	71.9611478040222	-4.27945302374088	71.9414270135286	-8.9082913806001	-164.795328149906	
2451000000	-7.93762331599677	-170.278000963438	-4.29738827393652	71.8869327741505	-4.29907326469586	71.9112969597141	-8.92217476529482	-165.033851964344	
2451500000	-7.92916179729581	-169.979509075115	-4.3075742332781	71.8754108267091	-4.29420093027043	71.8799534225238	-8.94034948606996	-164.745823177232	
2452000000	-7.89849864706637	-169.494169228324	-4.28937419447243	71.8403514338769	-4.29496896638886	71.8593387487957	-8.94740214724871	-164.831710192966	
2452500000	-7.90380141216188	-169.193638352324	-4.30049955228391	71.8957489166184	-4.29377557621579	71.8582698596447	-8.96137794457965	-164.798398915742	
2453000000	-7.89249079256479	-168.980651262516	-4.31000438630994	71.7584356948002	-4.30392838950412	71.7985145549475	-8.99300310342205	-164.992050845941	
2453500000	-7.89457528967318	-168.644059031935	-4.30953029987131	71.7262207141735	-4.30648499362273	71.7403651072248	-9.01337541417192	-164.903961964875	
2454000000	-7.90378434037392	-168.279882692195	-4.29904630396735	71.7222877363471	-4.30865189810145	71.7019268352739	-9.03153546730087	-164.971248560829	
2454500000	-7.88112994553053	-167.989171328805	-4.30882534566694	71.7262747479119	-4.30281312493853	71.6928368040948	-9.04409800199365	-164.971619171954	
2455000000	-7.90997186617609	-167.735653989648	-4.30710828970677	71.6094945921338	-4.3150617925419	71.6446276922918	-9.06425085232793	-165.053411704643	
2455500000	-7.91361978911287	-167.297506347823	-4.30953052475567	71.6047922021052	-4.31333217633885	71.6586799841773	-9.0710315379234	-165.19727778005	
2456000000	-7.88586999765972	-167.055996713468	-4.30732545122265	71.5882974316415	-4.31720005353022	71.5738926172767	-9.0844717241368	-165.019884525177	
2456500000	-7.86978730916184	-166.837113179235	-4.30890561272046	71.5018736956806	-4.30776005458717	71.5347831601095	-9.11868380472088	-165.027884762248	
2457000000	-7.9029953430553	-166.7118699548	-4.32675702641458	71.4492853533162	-4.32008713567633	71.4911766579359	-9.1292776504578	-165.189367609617	
2457500000	-7.92039945471329	-166.138554422032	-4.31823133171652	71.4958131635029	-4.32014588195058	71.399792204335	-9.15706406281578	-165.31437107461	
2458000000	-7.92010602472714	-165.763473392972	-4.32566034982581	71.4716906434188	-4.3202846802107	71.3835953207727	-9.18646181495698	-165.423839288718	
2458500000	-7.92637302296922	-165.656031943895	-4.32855405963988	71.4224036677826	-4.33672823368134	71.3753454255549	-9.19790363496811	-165.44751821672	
2459000000	-7.94682518865818	-165.215934244202	-4.32957864625574	71.3978391330885	-4.31780775520661	71.4060573875124	-9.22413954096823	-165.345166956392	
2459500000	-7.9520663895981	-165.081163036058	-4.32794721590864	71.3986545865031	-4.32205923951093	71.3121556236735	-9.22394667968748	-165.411595135408	
2460000000	-7.96194961517678	-164.912577088106	-4.33599433525583	71.2324307461124	-4.32661414920454	71.3233791255685	-9.26259419286065	-165.459179432972	
2460500000	-7.97860555428038	-164.517496301077	-4.32836778518635	71.2207533466152	-4.33569410417413	71.32585182664	-9.28342958419784	-165.387807889965	
2461000000	-8.00414811572617	-164.247074358198	-4.34006750898913	71.22546289702	-4.32341709749945	71.2182840932795	-9.320676159392	-165.504564772073	
2461500000	-7.98862463881683	-164.051897224605	-4.33750119711698	71.1655381783531	-4.33938295717558	71.2561969266273	-9.34611808117826	-165.72250229492	
2462000000	-8.02881871516301	-163.599897688334	-4.3313021084172	71.1720848688406	-4.33273499930811	71.1454826555044	-9.3421554693313	-165.709669438282	
2462500000	-8.0217498885604	-163.507264677236	-4.33469032367958	71.1976257689352	-4.33525711978911	71.1052569761431	-9.35654512841184	-165.760611726536	
2463000000	-8.04510487633566	-163.24266276124	-4.34112447699516	71.1597306705859	-4.34743941774684	71.0337505442826	-9.39618637923142	-165.765460857874	
2463500000	-8.06800725950641	-162.913580773986	-4.33380014083243	71.0850044477086	-4.33747018007606	70.9829666405179	-9.41495293552327	-165.910040220218	
2464000000	-8.08425260986581	-162.650126859523	-4.33604068074331	71.0460031012823	-4.33044925005755	70.9744476323825	-9.44093219893214	-165.66715080198	
2464500000	-8.10370290659001	-162.518289184213	-4.34302941207308	71.0036976326454	-4.3438314111764	70.9566917023417	-9.44116541579707	-165.745205775351	
2465000000	-8.14296532848018	-162.191035856889	-4.34740253704663	70.9292605506985	-4.3409700227537	70.9268015619754	-9.46807185360435	-165.927892825052	
2465500000	-8.16296580042073	-162.022205510405	-4.33564891001893	70.8913808949253	-4.35165541609156	70.8577228617869	-9.50588569252458	-165.965406787437	
2466000000	-8.19628483311633	-161.79359021387	-4.33476626875441	70.8778271220259	-4.33758781309796	70.8248821849637	-9.52203764865466	-166.002869091138	
2466500000	-8.21729457678161	-161.640606013243	-4.34056214232855	70.781839491196	-4.34433458393605	70.7041422621631	-9.54737790047504	-165.925919482053	
2467000000	-8.2404475007813	-161.479147659903	-4.34634663339426	70.7562880252736	-4.34868922523133	70.7267874292168	-9.55612764671627	-165.97860525793	
2467500000	-8.26627932993875	-161.243187452914	-4.35009232843376	70.6871889887992	-4.3567933169815	70.6500501094405	-9.56990062967527	-166.161518343403	
2468000000	-8.30645695807185	-160.985559995821	-4.3564254196074	70.6400625572801	-4.34438712750102	70.6564340252613	-9.61004558154217	-166.267426594726	
2468500000	-8.32016015426134	-160.982201800347	-4.33958896057541	70.6471739648096	-4.34653125664032	70.6044207759143	-9.59657714649038	-166.233210073674	
2469000000	-8.35018642821306	-160.634594697199	-4.35138898987664	70.5991395333815	-4.34425373963502	70.5621094986428	-9.63216314669134	-166.104208987989	
2469500000	-8.36645642451566	-160.533199440028	-4.34738227419426	70.5417345918153	-4.34794130841273	70.507398079407	-9.64420392888045	-166.442697765633	
2470000000	-8.40716024247545	-160.308151708914	-4.353928437436	70.5176852201512	-4.34344854345327	70.4417771126936	-9.70458827155042	-166.424275396533	
2470500000	-8.4223479679415	-160.186434216043	-4.35837225585173	70.4577419745217	-4.35077249727661	70.4010444351795	-9.69082222261416	-166.444337064371	
2471000000	-8.4695003448439	-160.0700854372	-4.35154027598958	70.417044972624	-4.35130170367202	70.3559029288272	-9.71616908578268	-166.523100442167	
2471500000	-8.49727710410345	-159.834363967419	-4.35841874078765	70.3572322714924	-4.3512477366005	70.3873370525687	-9.73882768532282	-166.570465294032	
2472000000	-8.53651048083464	-159.74372830412	-4.34760788126619	70.3028595979248	-4.34310666528968	70.2822280285978	-9.7480813154758	-166.728757508133	
2472500000	-8.55330279094769	-159.811771262922	-4.35200984765019	70.1942323102658	-4.35649548698349	70.2136759955912	-9.77573505871232	-166.724921485842	
2473000000	-8.59739903177052	-159.749631407738	-4.35733846009299	70.1276741660765	-4.35353475315187	70.1429692308935	-9.78785914722841	-166.777876161186	
2473500000	-8.65781866056796	-159.518717747512	-4.35307749295165	70.0964733443851	-4.35101800367916	70.1474366293401	-9.80874476665034	-166.730716250916	
2474000000	-8.68637705470042	-159.444565957393	-4.34603953832545	70.0655815157755	-4.34215893634344	70.0418659785819	-9.81631666736878	-166.854301240253	
2474500000	-8.71450866503306	-159.298305509377	-4.3492091943564	70.0343718017447	-4.35696647958449	70.0401238808745	-9.85412045085141	-166.990633111269	
2475000000	-8.76664991239523	-159.214153196673	-4.34770168455959	70.0214916329063	-4.3448387464523	69.9493786291261	-9.8320869086578	-167.049742837456	
2475500000	-8.82437730099245	-159.096304202235	-4.35345466301739	69.9282475890894	-4.34626376499295	69.892899482704	-9.85391512882072	-166.994325053643	
2476000000	-8.82399377629231	-159.168235697555	-4.34814229428405	69.8635276579479	-4.35369101044591	69.7808149672722	-9.875975258073	-167.271894984049	
2476500000	-8.8872051582954	-159.274953637725	-4.35751060747069	69.7563019380278	-4.35475134208966	69.7263473135235	-9.87164979429541	-167.209923464195	
2477000000	-8.9311354622988	-159.104415172232	-4.36021263935354	69.6659438101751	-4.35567438453456	69.643597501615	-9.88446990305246	-167.260420339887	
2477500000	-8.9703994127939	-159.135504432373	-4.36239306676835	69.6189421944937	-4.35446251843653	69.6153258818566	-9.91512912530529	-167.433019655095	
2478000000	-9.00502727165489	-159.106083467855	-4.35502240387177	69.5938623105167	-4.35547245336888	69.5758660455664	-9.92665257673376	-167.426566563623	
2478500000	-9.04939171871485	-159.133943920372	-4.36055172039247	69.5170921062804	-4.35762393715717	69.4433061100586	-9.89619389899728	-167.385216600247	
2479000000	-9.10251834087186	-158.970434168696	-4.3536262708314	69.4178317189091	-4.35138428727328	69.4193339023438	-9.92451513594566	-167.502766753025	
2479500000	-9.15054804417664	-159.104972768125	-4.35350523533404	69.4760102244153	-4.35356504491708	69.3660761743888	-9.92342209546036	-167.560001294351	
2480000000	-9.17341912484397	-159.094906966139	-4.35542915985116	69.404582468985	-4.35385412338957	69.2931333203817	-9.91843631373926	-167.53160783743	
2480500000	-9.23126544006302	-159.27679066744	-4.35714006501049	69.3081038074248	-4.34232897705662	69.2265587057308	-9.92532996977845	-167.770561884636	
2481000000	-9.2446039030381	-159.204376882318	-4.34360281566857	69.1685236439312	-4.35368757313713	69.1753746268218	-9.93147881614846	-167.774847723105	
2481500000	-9.31412660891193	-159.301548594259	-4.3533208265571	69.1902173945288	-4.35128412119298	69.0954038134843	-9.93645840208808	-167.778917369396	
2482000000	-9.37955548260265	-159.417495906667	-4.36352906696775	69.0916482490932	-4.34866279682894	69.0103980415871	-9.96200943687579	-167.931244661234	
2482500000	-9.42856547528831	-159.332156144251	-4.34313625443569	69.0634888688858	-4.34951482111663	68.9832289182515	-9.93844922332408	-167.763352181828	
2483000000	-9.46221530007109	-159.495428278954	-4.35396917661328	68.8775829317805	-4.34779279929503	68.9369079719465	-9.92353281271684	-167.968220703518	
2483500000	-9.49967426254907	-159.700280128659	-4.34501910305031	68.843614437966	-4.34986847528923	68.8343526182817	-9.93012865651995	-168.053465153583	
2484000000	-9.56107185649146	-159.694159033797	-4.35482201315065	68.8131182820687	-4.35289567754109	68.7092700808824	-9.94789217582156	-168.02290486577	
2484500000	-9.61630895943703	-159.835915921974	-4.35108405845089	68.722046204356	-4.34167960473478	68.7409512204622	-9.94910556979763	-168.028971979242	
2485000000	-9.6651919007667	-160.074207642532	-4.3454387746624	68.7066992846892	-4.35731073643221	68.615751925073	-9.94909740557478	-168.128818725111	
2485500000	-9.71706269744581	-160.316517290229	-4.35514826763262	68.5660696850337	-4.34238422690593	68.5217217760544	-9.93636354782558	-168.185871721537	
2486000000	-9.73009327112053	-160.227549705168	-4.34756162047725	68.5214736405841	-4.35463992615333	68.4207505769699	-9.93503890546088	-168.24209006994	
2486500000	-9.7726392038152	-160.605590225138	-4.35037456911652	68.387939940349	-4.3507401266927	68.388859147355	-9.94079970440219	-168.397328860404	
2487000000	-9.8357463802369	-160.673714721713	-4.34289389882934	68.3337454969013	-4.34098441652939	68.3527520150748	-9.90396220188584	-168.25962682055	
2487500000	-9.89578566075853	-160.987944985466	-4.35125278929055	68.2446691751283	-4.34437243092997	68.2343974919827	-9.92878076815195	-168.435636986519	
2488000000	-9.93884049915904	-161.293444311983	-4.35114604091241	68.2071595963743	-4.33713419292962	68.10625609934	-9.91179271811965	-168.496378438847	
2488500000	-9.99289765798834	-161.574770051009	-4.35649831674285	68.1376682882721	-4.34838684038926	68.0824553076344	-9.91126848330824	-168.59096177776	
2489000000	-10.0062246296487	-161.767005444395	-4.35965832748614	68.0645597405133	-4.35201493852252	68.0312027967183	-9.90353902622523	-168.57353457891	
2489500000	-10.0606364569281	-161.953731284372	-4.35055987974064	67.9482860431023	-4.3388642143433	67.8934224386214	-9.86036114849997	-168.524332032055	
2490000000	-10.1129402804167	-162.411529198846	-4.34489177690702	67.8613771842401	-4.33734388029829	67.7840115475725	-9.85530257208741	-168.498582174812	
2490500000	-10.1294233739389	-162.497708501547	-4.33758927673456	67.8504450836983	-4.33855881878409	67.7043072417528	-9.84800792010592	-168.668883722101	
2491000000	-10.1847815724108	-162.784461872763	-4.35098524957576	67.6027193090009	-4.34732266638404	67.6355238219738	-9.83897296331008	-168.73585063828	
2491500000	-10.2040042956383	-163.080989372279	-4.35138268158125	67.6554130855202	-4.3406839464548	67.5956563066055	-9.83239114928369	-168.813443398029	
2492000000	-10.279808316895	-163.506174568844	-4.35577303818608	67.5531779146489	-4.33680540147752	67.5967934612326	-9.81540894719136	-168.947534299074	
2492500000	-10.3125433236038	-163.883111866452	-4.35123914344703	67.4207141656152	-4.34678448054223	67.3374119869498	-9.80402211291977	-168.894451185987	
2493000000	-10.3210880544161	-164.002699739374	-4.34260094773007	67.3442922971384	-4.34630152325307	67.3367366404687	-9.7914957937413	-169.162874643426	
2493500000	-10.3838152193197	-164.491663774689	-4.35536055431037	67.266418637251	-4.34336949110159	67.2348683586341	-9.77932560889653	-168.82017042114	
2494000000	-10.4120354679819	-164.844230301132	-4.33637164890386	67.1986762634605	-4.34312426132612	67.1405767142831	-9.74948616226692	-168.905743145528	
2494500000	-10.4645442237101	-165.233733297198	-4.34669139003991	67.0834120605847	-4.33856435132511	67.1022195489518	-9.72589226224106	-169.068222270263	
2495000000	-10.4781472128307	-165.805757537942	-4.34622867067322	67.00905378097	-4.34144886158719	67.0271817956821	-9.72503701095351	-169.075909989267	
2495500000	-10.4980282123428	-166.09466655521	-4.34749180851939	66.9281142404907	-4.34751910174549	66.9110412484681	-9.68332376400455	-169.158138171033	
2496000000	-10.5273708475463	-166.476526395302	-4.34015757207456	66.8186702056531	-4.34030653698848	66.8735926271965	-9.68322457253114	-169.233045403255	
2496500000	-10.5652066794932	-166.897701339672	-4.34636285987803	66.7808991741584	-4.35140277790654	66.6927661812703	-9.65480657477874	-169.240740557743	
2497000000	-10.5891435025417	-167.304265276007	-4.35428112195567	66.7126412235178	-4.35151107160698	66.6595172930833	-9.64327420626187	-169.243184607922	
2497500000	-10.6044227729233	-167.64677404331	-4.35479667415346	66.609540871209	-4.33682202778111	66.5862219614552	-9.61482360422981	-169.304198502751	
2498000000	-10.6655701446391	-168.193909352902	-4.34439632910926	66.4624262860623	-4.35021358229063	66.4016813549667	-9.56022056405987	-169.176773385596	
2498500000	-10.6535865250923	-168.516825335557	-4.34317254370444	66.370482284461	-4.35156008569332	66.3235394634166	-9.52194307252211	-169.318348106383	
2499000000	-10.6600455372215	-168.957770091048	-4.3420552427103	66.2818706273086	-4.33562362828798	66.2948707502964	-9.52052060300782	-169.452449614338	
2499500000	-10.6682347272505	-169.452337623628	-4.33874283540369	66.1308155100399	-4.34065193788711	66.2093333224839	-9.50684981929294	-169.479801715223	
2500000000	-10.6971978846551	-169.928332829085	-4.3438514505582	66.1025553244392	-4.34765956726315	66.0845757311237	-9.49459860581524	-169.434597045298	
2500500000	-10.7074227122775	-170.427924886744	-4.34276632903479	65.9788777794658	-4.33781162172835	65.9721567933901	-9.44093298745912	-169.39501748379	
2501000000	-10.6876433967296	-170.920843247041	-4.33842768734959	65.9187983360985	-4.34438290648731	65.8429816399005	-9.40967804517374	-169.517746149758	
2501500000	-10.7331246863291	-171.293720837958	-4.32703833843815	65.8360605496468	-4.35867868604191	65.8710843507956	-9.39188980105015	-169.449181548193	
2502000000	-10.7300959541953	-171.818483143044	-4.3460007951263	65.78830276755	-4.34642740233194	65.6740994454159	-9.36427510955686	-169.343768440231	
2502500000	-10.7198175782827	-172.192794416485	-4.3646099243721	65.6887013084507	-4.33421163477354	65.6616114756576	-9.38193454749256	-169.64517647864	
2503000000	-10.7409758037361	-172.621463505189	-4.34139068674857	65.5515809506859	-4.34530179117864	65.5316365502405	-9.31740562545964	-169.576075333436	
2503500000	-10.7465962933334	-173.39510284245	-4.34203652000624	65.4657624288956	-4.36724423402583	65.4573187836676	-9.27823406299326	-169.693056392231	
2504000000	-10.715481730377	-173.586516396957	-4.34131122996008	65.389635480832	-4.35067314859216	65.2837600052952	-9.24882987498312	-169.645196503447	
2504500000	-10.7373016995233	-174.220945579856	-4.3432105598136	65.2540064196466	-4.34580727039299	65.286248370627	-9.18689882200441	-169.692138840368	
2505000000	-10.7007957867105	-174.532225783849	-4.34456518710567	65.1802251574141	-4.34677961438013	65.2232854853436	-9.19226786774529	-169.662038996819	
2505500000	-10.7092566039408	-175.11284445414	-4.3385977283929	65.1161876461439	-4.34542229810431	65.0369701912361	-9.14838669185093	-169.67220453483	
2506000000	-10.6996118367669	-175.368995274737	-4.3510765368425	64.9784462551598	-4.35587881045313	64.9442295306277	-9.11330249413667	-169.617572484869	
2506500000	-10.6519290820956	-176.015722411632	-4.35497152514054	64.8066849945382	-4.3521207402605	64.7954648927587	-9.07056364882754	-169.790669946646	
2507000000	-10.6737415749806	-176.241203816073	-4.35423715888386	64.7413736647732	-4.35311978242164	64.7697675196714	-9.06147939666876	-169.633281977623	
2507500000	-10.6571155540753	-176.873833252847	-4.33739008134231	64.6435061101458	-4.35613214532619	64.6900580573714	-9.01009098242307	-169.781442609511	
2508000000	-10.609114359835	-177.205343857916	-4.35993316703155	64.5849812393891	-4.34783650691717	64.5454829428299	-8.99118973830957	-169.849928411903	
2508500000	-10.6272727443513	-177.743014736029	-4.36577633583328	64.4295644093135	-4.35432969308065	64.4762123003784	-8.94027458770452	-169.815639404637	
2509000000	-10.571256239167	-177.986666914521	-4.35192086377762	64.388223717764	-4.35480071190277	64.3819244156138	-8.90359411857109	-169.762107933202	
2509500000	-10.5488396171685	-178.569443869573	-4.36424183527974	64.2659178787286	-4.35102775390798	64.3052293725558	-8.8971372545878	-169.844025384214	
2510000000	-10.5501491676872	-179.046684940986	-4.37245665131043	64.1649535415556	-4.36520354480221	64.2227110300687	-8.85394385471703	-169.924172829054	
2510500000	-10.4792214802172	-179.557228743754	-4.36315549018268	63.9903483701665	-4.36940291616762	64.0479552823888	-8.7999785253975	-169.809296402583	
2511000000	-10.4719498617247	-179.877546818477	-4.36800734849284	64.072930915895	-4.35922670250147	63.9750600137064	-8.79821024954982	-169.849876318852	
2511500000	-10.4093302057907	179.936530633403	-4.35697507464156	63.9453358348881	-4.33433508746375	63.8837477659947	-8.76219377234923	-169.675510514992	
2512000000	-10.4022183657158	179.321352430418	-4.36756560444091	63.7500786999795	-4.35700262905266	63.7426898722061	-8.70507529175447	-169.86089389895	
2512500000	-10.3803046330598	178.905596558655	-4.36873756066491	63.6792585562111	-4.36445664858534	63.6899492462523	-8.68857178776694	-169.942091747407	
2513000000	-10.3108283994163	178.63923689923	-4.36918104924266	63.5999932465461	-4.3648439422763	63.5517424562349	-8.66172818812846	-169.929790084726	
2513500000	-10.2706014828408	178.483874671133	-4.36908103001777	63.451536683971	-4.36419231891985	63.4517310504434	-8.61873553882015	-169.887752510659	
2514000000	-10.2292687392297	178.137232283266	-4.36612463259821	63.468750972993	-4.35240423183647	63.346225342392	-8.59550716376487	-169.859698622667	
2514500000	-10.2093061804476	177.730575739801	-4.3746579080621	63.3137452871777	-4.36820373413561	63.3416245852977	-8.58268465826686	-169.740696824782	
2515000000	-10.1400250102776	177.209726758012	-4.37305659097827	63.2103009596622	-4.38721224140526	63.2259521435321	-8.53590598046747	-170.09320163381	
2515500000	-10.1252986495319	176.996453810897	-4.38130675422264	63.2004055310932	-4.37215723296201	63.1449428908267	-8.52104844161272	-169.784385039933	
2516000000	-10.0895142950602	176.864690982054	-4.39624531641562	63.0834357379639	-4.38034336929513	63.0481253269584	-8.47468482917289	-169.865366018112	
2516500000	-10.0252804768367	176.569122783287	-4.37854116068965	62.9740634976762	-4.3732218513944	63.0122137657755	-8.44596646222458	-169.980879840089	
2517000000	-9.97332561729862	176.398950026713	-4.39671720450245	62.846016298363	-4.37081478417573	62.8680653326946	-8.41598152195108	-170.017006500464	
2517500000	-9.91373831058413	176.006878715052	-4.38602158769393	62.7530085621374	-4.39426546191258	62.6402426678541	-8.37125888375335	-169.896081843951	
2518000000	-9.87997066860765	176.002717671487	-4.38036196842156	62.64409271777	-4.39593970446112	62.6733649024519	-8.34577519279288	-169.898053046738	
2518500000	-9.8600908477837	175.64207763972	-4.38990784508971	62.549276196988	-4.38709417880455	62.5536345555589	-8.29169237055267	-170.065652279851	
2519000000	-9.77753688283185	175.588925379544	-4.37816151745257	62.4439696477883	-4.39598563379997	62.5890158750583	-8.27684298787801	-169.926905481548	
2519500000	-9.72729268079969	175.315746109339	-4.40252997383818	62.3398589744983	-4.39028056467482	62.2463442820528	-8.25219839672561	-169.910947605682	
2520000000	-9.68600069863649	174.938206835789	-4.4109669302889	62.2585930314887	-4.38675002275967	62.2597911645051	-8.23346335750413	-170.031821066603	
2520500000	-9.63936649453358	174.691576623002	-4.3884111735871	62.2827667425641	-4.39977355974735	62.1600501898539	-8.22647371032133	-169.752830374924	
2521000000	-9.6039565108118	174.717970391635	-4.40219281743712	62.1458980348833	-4.39360535352683	62.1692189485738	-8.16835152683233	-169.965983990734	
2521500000	-9.54293491125493	174.456734689986	-4.39938794557703	62.0287531495405	-4.39899071290915	62.0590809597941	-8.12749060196136	-169.890103558958	
2522000000	-9.48585104723615	174.39464216981	-4.40281730184839	61.8843272214439	-4.413162978836	61.9017005693833	-8.11441497317532	-169.926422705062	
2522500000	-9.46188649737249	174.094131573507	-4.41283242037111	61.8320229577517	-4.42352191586259	61.8724385626054	-8.11388169636769	-169.786898551829	
2523000000	-9.40778573808004	174.059675094321	-4.40389418044942	61.7563775964909	-4.40613310931823	61.7732650930475	-8.09068442361101	-170.021644313842	
2523500000	-9.34293111728459	173.874453736374	-4.40304930917955	61.6079154861332	-4.41837513337755	61.7127928021699	-8.03364969332598	-169.865796181165	
2524000000	-9.27682917476147	173.903710703624	-4.41759030741624	61.502064252881	-4.42068008041536	61.6005515017735	-8.00146578751504	-170.168330295686	
2524500000	-9.24321629666806	173.816453653005	-4.41337996598531	61.5396483734523	-4.40276554638993	61.4802657480167	-7.98633114842542	-169.823959311275	
2525000000	-9.19156450955079	173.830574529673	-4.41126648256247	61.5005923275384	-4.41445870165448	61.4452580110145	-7.99538601281628	-169.762945117511	
2525500000	-9.1593163332944	173.836449370964	-4.42015558268405	61.3085513038846	-4.4137672519912	61.3374596883014	-7.93031320832149	-170.159186063199	
2526000000	-9.08888700043006	173.481481954115	-4.41184102681671	61.2461029094219	-4.425216114389	61.176071159679	-7.92246797776161	-169.977731780225	
2526500000	-9.03777579423598	173.711181075895	-4.42947771454687	61.2342915220433	-4.41584222702893	61.2210724753568	-7.90719645796069	-169.97652002554	
2527000000	-8.98414766937739	173.710970909144	-4.42878253414264	61.097922206591	-4.42028058598089	61.1206367242776	-7.90847835525926	-169.826424801592	
2527500000	-8.92305097866054	173.529220046081	-4.41972366562536	61.0086838986455	-4.41370536102179	60.9608331108136	-7.88428715006245	-169.945825444525	
2528000000	-8.86031043079916	173.511081396035	-4.43015861359967	60.9072372675297	-4.42926758042749	60.9323316730665	-7.83329272128371	-169.775729753632	
2528500000	-8.83133483822215	173.597471987306	-4.44556569508941	60.8313852469655	-4.4265371931716	60.8098485787391	-7.8429075719385	-169.934433912125	
2529000000	-8.76205076407991	173.802111265173	-4.43624205938035	60.7307968741721	-4.41610488204097	60.8021987633949	-7.79564978916274	-169.823280459286	
2529500000	-8.72983888725935	173.590087279013	-4.43651007467321	60.6810495443534	-4.4454575164253	60.6818921939299	-7.81015883077644	-169.806892561539	
2530000000	-8.6608256910743	173.501550783083	-4.44875803240738	60.5747426199869	-4.43589448423531	60.5839097478649	-7.78703594310143	-169.928171650733	
2530500000	-8.63147670082842	173.685270037486	-4.44326273500582	60.5653117134421	-4.44576782922864	60.4973305609411	-7.77077215136181	-169.94390557744	
2531000000	-8.61366454158846	173.663638837607	-4.44381045698595	60.6178585131857	-4.43133118108449	60.5632138829165	-7.74083283410602	-169.892801177215	
2531500000	-8.55394248334412	173.616393477234	-4.45131242336163	60.3898593317953	-4.43790585092298	60.4420900245775	-7.73922747811143	-169.870433437944	
2532000000	-8.50360200568964	173.737617336089	-4.4613773298074	60.367112346943	-4.45808685253869	60.2579170509778	-7.73287463457386	-169.978969290328	
2532500000	-8.45951483915481	173.773650483664	-4.45173056664274	60.2939036102258	-4.45823571457943	60.3324045585675	-7.70388404354415	-169.859456900338	
2533000000	-8.39154459207618	173.898910079032	-4.45404222378011	60.1733731265291	-4.44661765262959	60.2036193020035	-7.72157767749733	-169.829079167741	
2533500000	-8.3611850198743	173.869394467256	-4.46167182617885	60.1764524411971	-4.45412235258003	60.1500852740479	-7.7203358416282	-169.725141523148	
2534000000	-8.33810318415068	174.064139869601	-4.44669679317988	60.0836895158364	-4.45376249764579	60.0305148533859	-7.67924437882527	-169.713220949513	
2534500000	-8.23324867254079	174.094051838157	-4.46780515383386	59.9681020422743	-4.46561435674991	59.9693626317003	-7.63808743774703	-169.748398047381	
2535000000	-8.2541746586145	174.309970083185	-4.46381158189229	59.9754952277749	-4.46270676727773	59.9294371889755	-7.64548934795068	-169.72454366033	
2535500000	-8.21020602734199	174.354783281787	-4.45210866428303	59.8612476999642	-4.47100779441827	59.9412081318111	-7.62879179941494	-169.649731570105	
2536000000	-8.15525986282671	174.639042421328	-4.48180141797798	59.7840936821475	-4.46543664167829	59.7435246142706	-7.61400619641295	-169.837493752995	
2536500000	-8.1420306836514	174.771423210142	-4.48693669681494	59.7232042329452	-4.46627357817483	59.7300497740509	-7.63396311420741	-169.559164072091	
2537000000	-8.08738065160918	174.892483025651	-4.47982754955911	59.7125822611578	-4.47499661574447	59.7089355634165	-7.64201338998811	-169.697255543576	
2537500000	-8.03704233332285	175.006688479444	-4.49613246760489	59.5516035228706	-4.48862388133062	59.558475330943	-7.62988827603535	-169.844302356054	
2538000000	-8.0026309073301	174.980517395636	-4.47939012251334	59.5969450275144	-4.46623675344596	59.5314014975241	-7.63773431188666	-169.85499097008	
2538500000	-7.92819134286999	175.34846856549	-4.48570823339965	59.5135446796196	-4.46689191817351	59.4757138694435	-7.60686428847011	-169.813202814436	
2539000000	-7.94559400568011	175.522672280844	-4.48708645763104	59.502371695626	-4.49541583092456	59.4239129040755	-7.58136125689775	-169.849495194843	
2539500000	-7.84451098836316	175.549596793918	-4.4902716077446	59.3310084368179	-4.48748493077273	59.266222161917	-7.58575536029697	-169.714071180622	
2540000000	-7.84121922249395	175.76212422962	-4.49730629832097	59.2823617126722	-4.4920314726312	59.3490046058206	-7.62259088981205	-169.774795788435	
2540500000	-7.80050175922797	175.749071375882	-4.48103892132137	59.2662747027433	-4.49272454648633	59.2518405033678	-7.59998622408746	-169.731561273762	
2541000000	-7.77995308511179	176.163435691496	-4.49643225775497	59.2774328153035	-4.50513684939722	59.1667532677519	-7.59828851078981	-169.739552169339	
2541500000	-7.77468099145737	176.217436944969	-4.49966724194525	59.2740469762234	-4.5090140928651	59.227507288331	-7.62185611906477	-169.706179724642	
2542000000	-7.7351555046818	176.576536979756	-4.51412288626683	59.1173798654512	-4.49845063803413	59.1201912034262	-7.61098764866387	-169.818557129878	
2542500000	-7.68873272910816	176.493628350916	-4.515478625754	59.0440322724011	-4.50579821938942	58.9611991642953	-7.61775728799151	-169.781005263978	
2543000000	-7.65284274517678	176.816094527476	-4.50966312112822	59.0093295055438	-4.5154498894098	59.0329541053972	-7.62728355351228	-169.724633382249	
2543500000	-7.65624469376093	177.090362047769	-4.52379092953832	58.9647236030745	-4.50765262792549	58.9180031238534	-7.59566598345649	-169.853473796809	
2544000000	-7.63281622879859	177.173080674489	-4.52085551912726	58.952045689475	-4.51504520686818	58.9751136481565	-7.64154777370234	-169.628015667059	
2544500000	-7.59473362102881	177.406093743521	-4.52654672271927	58.829788420677	-4.51316585837328	58.8816879058914	-7.6422752164217	-169.824213640082	
2545000000	-7.55494889124516	177.766996831364	-4.52520043277786	58.8672438464555	-4.52150355119336	58.821533041871	-7.6530751566793	-169.815942927684	
2545500000	-7.52995953380699	177.97306489564	-4.51740994324449	58.8429942593701	-4.51792840202079	58.7303726603437	-7.64422558027073	-169.831959716451	
2546000000	-7.52034204179967	178.209690538971	-4.52668086249163	58.7442381171743	-4.52733836937695	58.7101778404875	-7.65248434910583	-169.796109439454	
2546500000	-7.44212099811386	178.342630657979	-4.52407992653519	58.6901391503355	-4.53967978202075	58.6784161380674	-7.65413202377682	-169.832962000055	
2547000000	-7.46430939875033	178.727455851056	-4.53233736040155	58.7218015870244	-4.53785435221733	58.6705926225149	-7.68504734648936	-169.862566499699	
2547500000	-7.42469885807062	178.810823172143	-4.54619862838853	58.6455418206677	-4.5510150344162	58.5597540895477	-7.66656276195948	-169.854189818258	
2548000000	-7.41881822021869	179.091736523305	-4.54853662567839	58.5607720233516	-4.54843421220141	58.5454978594616	-7.68414608184988	-169.866513924807	
2548500000	-7.38634130450564	179.197563414511	-4.54400307078306	58.477957779961	-4.53485168246392	58.4483860072085	-7.68749307678133	-169.780579315228	
2549000000	-7.37159258721344	179.459773394726	-4.55178409475169	58.5376965345244	-4.55590288341633	58.4810515677124	-7.72585480513707	-169.95832190291	
2549500000	-7.37235006431186	179.835742900058	-4.5496214773085	58.4957209648876	-4.53932688542677	58.4380897114772	-7.71405181433295	-169.733220601573	
2550000000	-7.37177973779213	179.973923094183	-4.57319577708538	58.4454195692621	-4.5521611446272	58.4137431784876	-7.74946689461745	-169.862276929313	
2550500000	-7.31643315491068	-179.752082449404	-4.55881665252827	58.4058406225477	-4.58385648339498	58.3589918142893	-7.77462814952131	-170.05433203264	
2551000000	-7.31430227543344	-179.502751436867	-4.56168006767709	58.3916644284938	-4.57954265885586	58.2700727727739	-7.79006404541712	-170.044777720148	
2551500000	-7.28937558447499	-179.372929828248	-4.566302135523	58.3455708862291	-4.56603014529702	58.3698869813973	-7.80760550571503	-169.947031633206	
2552000000	-7.2951086463299	-179.13245279453	-4.58132384189472	58.219542942829	-4.57313874150153	58.2466791691256	-7.8099439809079	-170.218882502899	
2552500000	-7.27173634895258	-178.728090263322	-4.56514015043078	58.2461024413059	-4.58017446922775	58.2063625831548	-7.77370551906174	-170.002218110917	
2553000000	-7.25849101059036	-178.739980221265	-4.58171387529703	58.2085075294307	-4.58126745241038	58.1522262227786	-7.81486539353195	-170.047991185264	
2553500000	-7.24918622194013	-178.140148639295	-4.58302241751126	58.2049833214085	-4.58075449735797	58.1343855540342	-7.85857937098782	-170.12751292127	
2554000000	-7.22427602349563	-177.940341514602	-4.58131902826893	58.2090118840314	-4.58510537847994	58.1108832391699	-7.90193702257187	-170.023902586409	
2554500000	-7.22208984882118	-177.84274689985	-4.59630705410373	58.0788467687111	-4.57532358853464	58.0442515180819	-7.87634009707697	-170.418225359733	
2555000000	-7.23352307842181	-177.498102316623	-4.59588705440489	58.0737641138943	-4.58380280363866	57.9288259351756	-7.88400368020718	-170.360703002017	
2555500000	-7.2226698139213	-177.375749919491	-4.60385969329747	58.09252233165	-4.60828380934039	58.0877170968073	-7.93098242193811	-170.336574035673	
2556000000	-7.18093972717648	-176.920018322728	-4.58059648417927	57.9244453552818	-4.58913587735264	58.0153330769576	-7.93047328082791	-170.212218433636	
2556500000	-7.21079548348663	-176.721888255942	-4.59771888283316	58.0015635960708	-4.59600081824954	58.0130196339459	-7.97731008025875	-170.295170316333	
2557000000	-7.17872158311689	-176.403810713229	-4.59428928899586	58.0292901197111	-4.58916695483727	57.8930504539728	-7.9474478834271	-170.082796096652	
2557500000	-7.17402134490313	-176.366068341563	-4.60620697426009	57.8261770447503	-4.60001272191069	57.906688236718	-7.97544420577531	-170.253919763794	
2558000000	-7.19369818372467	-176.113883699497	-4.60626604290782	57.8901483176168	-4.60318739898217	57.8713152326318	-7.99545883566469	-170.538074211666	
2558500000	-7.20240943953865	-175.992257761154	-4.62281816988249	57.8058702733049	-4.60270106069128	57.8176108961354	-8.00374139917906	-170.584417409475	
2559000000	-7.20706107203166	-175.740919159237	-4.63240200367926	57.8067704675898	-4.60303277107346	57.7356863423797	-8.04416093829387	-170.51886864739	
2559500000	-7.15174535995513	-175.493039816067	-4.60643559310144	57.7329601702707	-4.62451960731617	57.7544950697729	-8.09893650712569	-170.681885648206	
2560000000	-7.18221251080473	-175.16864864354	-4.61782002169651	57.6949826326663	-4.62540046950863	57.7034112296247	-8.07309576632127	-170.733339367567	
2560500000	-7.19407846074598	-174.964416794012	-4.62831392398285	57.6910805883316	-4.61286776907162	57.7012242562187	-8.12095547803191	-170.554849594148	
2561000000	-7.21227760148625	-174.867931350052	-4.63910686529943	57.6971886580657	-4.6146413035145	57.6115594504036	-8.12343455404663	-170.734603872356	
2561500000	-7.16034506007049	-174.381422350718	-4.61458895528697	57.681656619901	-4.61844651742065	57.6202150682173	-8.14064288553477	-170.779239689013	
2562000000	-7.18341633420671	-174.15367855875	-4.61753362919849	57.6214204025208	-4.63054089849178	57.5611828181997	-8.1970105019495	-170.827633620402	
2562500000	-7.17763625509748	-173.961127256316	-4.63135328910141	57.57282398539	-4.61861672199521	57.5315143613705	-8.20109447173433	-170.772586891467	
2563000000	-7.22520816429791	-173.788041690399	-4.63386373480382	57.5577345576959	-4.646297681406	57.5185496754673	-8.20741631607346	-171.101629007137	
2563500000	-7.21304554719374	-173.588020647543	-4.63895328519406	57.4611741637749	-4.61611854016367	57.355408625673	-8.21493210428201	-170.990705328881	
2564000000	-7.21307202084542	-173.337174328129	-4.63507024916621	57.5227966183596	-4.64576694508377	57.4806771902033	-8.25713195465544	-171.022378715404	
2564500000	-7.22317897029822	-172.99769521869	-4.63431456530293	57.5014336241198	-4.62900613172063	57.5022465388061	-8.30007615746102	-171.073908829566	
2565000000	-7.24917782752363	-172.951095734739	-4.65173740451631	57.3994105270244	-4.6528310925187	57.3520702886205	-8.29500853486419	-171.42997421334	
2565500000	-7.25466084272527	-172.637513367381	-4.65050582112491	57.4148736085594	-4.63985478883085	57.3402680401545	-8.29556839909528	-171.083988889723	
2566000000	-7.23617640155801	-172.466686942732	-4.63816784285601	57.3802865493335	-4.65334185711944	57.3106603988962	-8.33955914891802	-171.500513286096	
2566500000	-7.27271662769537	-172.201407554147	-4.66024104200765	57.3050634068618	-4.64420232695431	57.2577658930724	-8.35251375841752	-171.223644139862	
2567000000	-7.27056810989992	-172.101280572923	-4.64352587715166	57.2766758832087	-4.65374420664684	57.2718173619442	-8.38157047467002	-171.462351654114	
2567500000	-7.28811557170497	-171.992382578844	-4.64748172882715	57.3111288838527	-4.65633522303705	57.193473850694	-8.39249722295393	-171.465799721952	
2568000000	-7.30074807481556	-171.67386409059	-4.65116078452638	57.1845273673114	-4.65036119432554	57.2474406827085	-8.45372527894855	-171.495106912928	
2568500000	-7.29420441231415	-171.698022643269	-4.66102005598603	57.0971626933274	-4.65173948312509	57.1349145390802	-8.4334136428189	-171.745099282223	
2569000000	-7.32059467073276	-171.370383734095	-4.66698730976598	57.1899287734483	-4.65022389901569	57.1628407696372	-8.47976860786192	-171.68661533511	
2569500000	-7.34675421268436	-171.146041038508	-4.66711311168048	57.1218391948791	-4.6484965207261	57.0665269924238	-8.48031370363176	-171.720490005102	
2570000000	-7.34735495328457	-171.015251151142	-4.65868926710539	57.0564453005487	-4.6551214089983	57.043203260028	-8.48162480570294	-171.850253768819	
2570500000	-7.38362982284669	-170.924035865053	-4.65959137431902	57.0889548612134	-4.65871129916449	56.9741443415791	-8.49991322880331	-171.811591962283	
2571000000	-7.37836389532858	-170.515180597283	-4.65746268954264	57.0090533696919	-4.67251425656846	56.9427137408953	-8.54890601466669	-172.205552493878	
2571500000	-7.41204940870789	-170.583404216948	-4.67344464080808	56.9548124031829	-4.67040964207491	57.0015232570105	-8.57032738320025	-172.091028132742	
2572000000	-7.43016759033927	-170.105808514072	-4.66833371146678	56.9668016768272	-4.66424189815744	56.8901020292179	-8.57622636109611	-172.268651815756	
2572500000	-7.4513485571242	-170.254553742556	-4.67083902520247	56.845522406779	-4.67223380462571	56.7743697217412	-8.56921660928232	-172.440536367725	
2573000000	-7.45435440982973	-170.149806372818	-4.67376452999767	56.8361064441133	-4.65842606589228	56.7616782115346	-8.5843058296412	-172.414407847395	
2573500000	-7.51952978952316	-170.067084615744	-4.67673949409936	56.8291116246891	-4.6682130640831	56.8208011442316	-8.65272223046214	-172.36514322091	
2574000000	-7.5504001017209	-169.587186304185	-4.67583455280349	56.866031777903	-4.67651629607693	56.7879204941156	-8.65948960729291	-172.44215484461	
2574500000	-7.54782984461399	-169.573499184948	-4.68165467257615	56.7607775473323	-4.67262299142454	56.7264727914372	-8.66132488791109	-172.645548498688	
2575000000	-7.5703069027769	-169.24776257264	-4.67485390490917	56.7746916999349	-4.6746101180587	56.6408772049666	-8.67009763041737	-172.643887254678	
2575500000	-7.60033652271558	-169.273401699975	-4.68326142640672	56.7179331567771	-4.6863032906669	56.6760770707002	-8.70423020426901	-172.800018179075	
2576000000	-7.61895743510287	-169.256376909297	-4.67594848356273	56.6565957907294	-4.66742564037571	56.5903556233504	-8.72879470577393	-172.910721400185	
2576500000	-7.66108288450549	-168.989100859254	-4.66428537431322	56.6006619678544	-4.68239389268563	56.6207636686627	-8.74122344674926	-172.799522503394	
2577000000	-7.64314948557035	-168.903859274329	-4.67526928823052	56.5960982984096	-4.68081568715937	56.5120956165448	-8.74313692649682	-172.990696586208	
2577500000	-7.69507953263365	-168.882413407863	-4.67669046932353	56.5123596981793	-4.68840646673144	56.4896519967735	-8.73189168768324	-172.969189571217	
2578000000	-7.69916513424389	-168.875402131228	-4.67774647122471	56.4306459739144	-4.67026980953347	56.5313274473719	-8.74384477130052	-173.03102928604	
2578500000	-7.72488279072935	-168.757586347872	-4.67607633902563	56.3634006856887	-4.67768788086048	56.4418777660174	-8.7599841755244	-173.376897984757	
2579000000	-7.74881486770205	-168.61903927516	-4.68131516647001	56.4642165859467	-4.67489552364462	56.3195637867013	-8.76473757850096	-173.231124649026	
2579500000	-7.80446080508079	-168.745193020478	-4.68973650510306	56.3216505908783	-4.68567842170866	56.3007059168067	-8.78130811766509	-173.249531111865	
2580000000	-7.8185605643909	-168.572470321316	-4.67945727023708	56.3151249341427	-4.68496497023478	56.2204728162123	-8.77334443264068	-173.599749275846	
2580500000	-7.87304605640261	-168.404507659291	-4.67647272385308	56.2959351075185	-4.68183800283877	56.2137536299673	-8.80597989795382	-173.538734429722	
2581000000	-7.91418428709268	-168.335693878769	-4.6877553816087	56.3203016534464	-4.68297650135093	56.2362521251731	-8.80687860445843	-173.611480701109	
2581500000	-7.91761430653083	-168.458770657383	-4.679278398761	56.1434653978789	-4.68284957665387	56.0960070587824	-8.80495222611918	-173.729878233512	
2582000000	-7.93931437602595	-168.251244961299	-4.66623996352337	56.1005926875466	-4.67176922246653	56.0425701949262	-8.80253136617457	-173.661335165243	
2582500000	-7.98254945903351	-168.439938949783	-4.67723843244752	56.0564138491431	-4.67765973021209	56.0362853525455	-8.82391479486087	-173.750447358262	
2583000000	-8.02046186722139	-168.347433994325	-4.6894281467404	56.0316952541012	-4.67400550067802	55.8846045951489	-8.84980388786574	-173.886574241296	
2583500000	-8.02365092515453	-168.290851469674	-4.68914388157321	55.9935100259625	-4.67372194069485	55.9346727985387	-8.84154232818648	-174.096089980716	
2584000000	-8.1031639587245	-168.207896231574	-4.68747533168267	55.9182176111555	-4.69227210588551	55.9110253866729	-8.82881596657158	-174.037708517733	
2584500000	-8.09389659773504	-168.421471021495	-4.69517740884882	55.8306107929874	-4.67548626565033	55.7356898604444	-8.83530067631214	-174.131550806886	
2585000000	-8.14022133041639	-168.43312586117	-4.68824498524741	55.7739349126097	-4.67891664665746	55.7452641477017	-8.84106335348149	-174.266171907357	
2585500000	-8.18938415458503	-168.338923497155	-4.69617601413685	55.7903181357998	-4.69807121894014	55.7723348624804	-8.87739546355084	-174.527073609588	
2586000000	-8.22443197321626	-168.279160002826	-4.67248309847756	55.6737105451065	-4.68376290016433	55.6582178864802	-8.85651511556373	-174.327828247073	
2586500000	-8.23506836734447	-168.319225606696	-4.68252143693183	55.6587141046491	-4.68558421174846	55.5852697714959	-8.86640384385625	-174.122004701707	
2587000000	-8.26076261465081	-168.395905084825	-4.66994917120501	55.6116010003852	-4.67897755121882	55.4963686025938	-8.81791270620178	-174.460949283335	
2587500000	-8.29143774188489	-168.422385636603	-4.66488090874729	55.4510183946057	-4.67939717780947	55.4851625554269	-8.83044224144864	-174.440072062124	
2588000000	-8.34133953729695	-168.50795300779	-4.67914500001259	55.4713125163124	-4.67394700151205	55.4131262979319	-8.841393654513	-174.514258747624	
2588500000	-8.3760297431675	-168.567323696496	-4.68878161066502	55.3855654624115	-4.66881128197979	55.3113516848052	-8.84854254521264	-174.777154630349	
2589000000	-8.42942597004522	-168.590369439512	-4.66846298986784	55.3543484388972	-4.67348718245276	55.2817194632288	-8.81230864062073	-174.714587965274	
2589500000	-8.43168138417546	-168.761600818861	-4.67901558856353	55.2777109319819	-4.67032583793596	55.2259099411411	-8.7912209931886	-174.66011134967	
2590000000	-8.47485870617103	-168.844177105886	-4.68093491813895	55.1933065239761	-4.65852913928391	55.2139721039849	-8.80661834473992	-174.845393713507	
2590500000	-8.51609730725567	-168.83600972404	-4.66424921299126	55.1547468449338	-4.66590672079187	55.1485566498668	-8.80076885676936	-174.871798734699	
2591000000	-8.54601060361145	-169.101894426515	-4.67985718315008	55.1474674914536	-4.67413864219374	54.9882707372925	-8.81473579547323	-175.001975914612	
2591500000	-8.59137860133311	-169.112845697273	-4.67638167533242	55.01460187396	-4.67741863617839	54.9563724599268	-8.79836853092498	-175.054181888539	
2592000000	-8.60307677280123	-169.141700846526	-4.67202585688844	55.002845153035	-4.66807032947994	54.939544632071	-8.7714533270615	-174.949378374022	
2592500000	-8.64796406254971	-169.439340712635	-4.66689398267924	54.9370784707152	-4.68117661745517	54.8264120189052	-8.77970558006657	-175.153434039517	
2593000000	-8.6646322003546	-169.500252943255	-4.67215249140214	54.7644394597127	-4.67727137134446	54.772049957788	-8.79287303294801	-175.308214224282	
2593500000	-8.69307575289587	-169.564614888875	-4.68952008511481	54.6595593195417	-4.66076203955806	54.7273629131422	-8.75529416166768	-175.491896736985	
2594000000	-8.79942145822608	-169.772584769687	-4.67205706393986	54.7259199765964	-4.6709168903296	54.6736390533108	-8.7772230613153	-175.490943691184	
2594500000	-8.73971930163997	-170.118257934175	-4.65785906562055	54.6013951354602	-4.67820378260982	54.497209142373	-8.73734058355251	-175.255934940729	
2595000000	-8.78605506214708	-170.111745171376	-4.65277344530635	54.5370213119359	-4.66693973847645	54.4516376865091	-8.71328559929048	-175.445206407999	
2595500000	-8.82824894511	-170.317810756117	-4.67559924725838	54.4837544952428	-4.64819335660488	54.4551139750384	-8.70179917010727	-175.254030689752	
2596000000	-8.87626696242934	-170.585353099083	-4.65670908945956	54.3721932317686	-4.68279233532074	54.3191274000287	-8.67197475730791	-175.368036364878	
2596500000	-8.86970929193659	-170.617087514845	-4.653471579935	54.2514775023214	-4.66633262017066	54.3065627150333	-8.64276974427955	-175.450084102698	
2597000000	-8.90205853802532	-170.82586861885	-4.65309362288065	54.2988402400399	-4.66894054785555	54.1192481163365	-8.66316368930249	-175.474332450739	
2597500000	-8.9801460869654	-171.056782978891	-4.66868893904968	54.1232062785281	-4.66243006130684	54.220159059909	-8.64560448898756	-175.569417141835	
2598000000	-8.98890452663855	-171.351961992434	-4.66057632090974	54.0289273941831	-4.66947142211125	54.0602803135856	-8.60872361800629	-175.491179853671	
2598500000	-8.96252850189325	-171.732518474258	-4.65617577510807	53.9878092740899	-4.65518062093151	53.9124181833677	-8.59690381094078	-175.680297958761	
2599000000	-9.01418163042511	-171.721188672966	-4.66692761111564	54.0182372248189	-4.66807147562187	53.9015171725638	-8.57466380705802	-175.676629972414	
2599500000	-9.05876362994269	-172.004921537317	-4.66842652564932	53.8166311865819	-4.65757160796768	53.7855636421698	-8.54293042598131	-175.580106281849	
2600000000	-9.0414840737545	-172.360638244579	-4.65354040073851	53.7081729158591	-4.66293824534305	53.7024797476612	-8.54682518260595	-175.696210336699	
2600500000	-9.12647456994281	-172.554294107644	-4.65499865969704	53.7437281115576	-4.66400882900524	53.7160828686078	-8.52017136428141	-175.662037586969	
2601000000	-9.10037651281779	-172.733839357813	-4.65535536147305	53.6624207277025	-4.64687810916305	53.6836513073464	-8.48396117448496	-175.646921453187	
2601500000	-9.15450496882088	-172.885955480117	-4.66772287366498	53.5352524627372	-4.66565916124486	53.5676516992509	-8.4794949800883	-175.734956098604	
2602000000	-9.16985699353048	-173.453316974058	-4.66965045211971	53.385849248724	-4.65834382726852	53.4780998514144	-8.46906233417927	-175.857180370677	
2602500000	-9.20267214608008	-173.722668476285	-4.65495117399892	53.3664785707089	-4.67405099979408	53.4727824535343	-8.42642093042993	-175.710276930117	
2603000000	-9.2021982159732	-173.772075912707	-4.64964759369504	53.2561898380649	-4.65595070143695	53.182441619852	-8.39493717063794	-175.82876915625	
2603500000	-9.22395085154932	-174.139853919171	-4.65975060312033	53.1795050942033	-4.66829194793945	53.2027961963136	-8.38496239341717	-175.779616223108	
2604000000	-9.25102705466679	-174.617988030046	-4.66094939978601	53.2111244537465	-4.66263303430032	53.1097163083995	-8.36666814985447	-175.940874799237	
2604500000	-9.25424808520454	-174.730555029542	-4.66438273860875	52.9158542173663	-4.66750390323313	52.9728452061041	-8.32928053590577	-176.018344144919	
2605000000	-9.2702848353501	-175.084220875341	-4.67607086613777	52.9418186456485	-4.65838938549654	52.9735607150719	-8.31326874161608	-175.793873258252	
2605500000	-9.24648861337524	-175.349815838808	-4.65745891258071	52.9173156900608	-4.64826599443703	52.8485117008165	-8.29136407946144	-175.798621211458	
2606000000	-9.29643858977026	-175.576369978422	-4.64950653706668	52.7340248393117	-4.64698070143015	52.7594820545284	-8.26085158024172	-175.727216509743	
2606500000	-9.31818819095347	-175.939471563242	-4.66699091413659	52.7292819846445	-4.66445969709344	52.6880246669952	-8.25040909794	-175.883893539737	
2607000000	-9.320659528644	-176.414179351082	-4.64979795886984	52.5230706244477	-4.66987499671747	52.5896109734205	-8.21914383523279	-175.871249113157	
2607500000	-9.34249475144408	-176.650902231113	-4.64198230111876	52.5058433820107	-4.65830751956469	52.5774316051152	-8.18077716361299	-175.80808480787	
2608000000	-9.31526993024088	-176.879872275282	-4.6578765168417	52.4131308859174	-4.65437986671845	52.4190000535518	-8.1634339462904	-175.575773028798	
2608500000	-9.29706470193394	-177.220709772848	-4.65100864876015	52.2843356684432	-4.64757093457533	52.2819344743987	-8.14165286034059	-175.987321531673	
2609000000	-9.36669633558345	-177.579228899335	-4.65482512413868	52.2220624507355	-4.63968935670391	52.1677898682366	-8.06882807216151	-175.722519958959	
2609500000	-9.32599233841861	-177.894815505597	-4.66204503341899	52.2019222693069	-4.65995613577628	52.1633040164781	-8.08920790432018	-175.78294993701	
2610000000	-9.35341116745045	-178.402975455632	-4.65735695750369	52.0958658669315	-4.65290929448435	51.9617589551292	-8.04859437733988	-175.84600564463	
2610500000	-9.35609875574153	-178.448123954152	-4.65733373135402	51.8928058832501	-4.66539658128909	51.9319905096262	-7.9986697417973	-175.940595494821	
2611000000	-9.35462920483458	-178.877579532476	-4.65455171545711	51.7782999725091	-4.65101394752472	51.8132315700055	-7.97660625770805	-175.920114519469	
2611500000	-9.32152848798863	-179.020179554204	-4.65796554306643	51.7370032990987	-4.64645691455076	51.7320700351578	-7.96013568225079	-175.929770324834	
2612000000	-9.32641670763728	-179.772239783664	-4.65824870068738	51.6451113160127	-4.66520385505778	51.5694449812852	-7.94605523516258	-175.777578914378	
2612500000	-9.32242998585221	-179.744235710043	-4.65355328737222	51.5616191557926	-4.65857169716122	51.5269572934799	-7.90437852255458	-175.889095493318	
2613000000	-9.30370043356741	179.853266380556	-4.6586522929592	51.5086980057151	-4.65723295299081	51.4023010086384	-7.89811163047224	-175.658506134575	
2613500000	-9.29307923551168	179.352650902575	-4.64863437517131	51.3867830646611	-4.65731595701437	51.3206305376711	-7.87482517360431	-175.815035563827	
2614000000	-9.31588507658245	179.140329639221	-4.66096717456597	51.3343150262426	-4.65955163380323	51.3410810845445	-7.85772505458893	-175.581729939447	
2614500000	-9.27193766105408	179.066130707163	-4.65100072205465	51.1610227813193	-4.66147668063525	51.1936455070321	-7.81235597181127	-175.490550091913	
2615000000	-9.27863366199962	178.554195604323	-4.65984566024936	51.0710166443588	-4.64765785430927	51.0727365817591	-7.77201586398532	-175.799306489522	
2615500000	-9.23698766501478	178.170787821456	-4.66120256475707	50.9881466778849	-4.65280996517665	50.9598461260238	-7.75880220662021	-175.915455174603	
2616000000	-9.22098928378725	177.941024015492	-4.6709312079766	50.8443572443582	-4.65852305523404	50.8745464473641	-7.74486401246325	-175.720207370408	
2616500000	-9.23697634810667	177.696667845689	-4.65444836038116	50.8434551706179	-4.65934588530144	50.7180846845055	-7.71812124776233	-175.64414388368	
2617000000	-9.19411305359884	177.467394324552	-4.65447846217845	50.7028031378572	-4.65091360032451	50.7515696822645	-7.68545636162013	-175.694702621501	
2617500000	-9.20105990189572	177.159901760897	-4.65559006008568	50.5767886033928	-4.673977449518	50.5982972607134	-7.6651996614298	-175.650859975231	
2618000000	-9.13779340973202	176.858103136408	-4.66793908347479	50.507431719265	-4.65722422989406	50.4776302685086	-7.60785789255634	-175.8515354077	
2618500000	-9.13726271090649	176.492639663927	-4.67057855895327	50.4515035640934	-4.66296460745814	50.410940068954	-7.62770328508962	-175.530415369211	
2619000000	-9.1261229180742	176.470679563702	-4.66785578587322	50.3497433789977	-4.64527764170208	50.4076111674251	-7.58846022947942	-175.596298329134	
2619500000	-9.10367804040647	176.041085439806	-4.67480585341681	50.2667129071385	-4.67075238787886	50.194573906514	-7.55859836716833	-175.459501976747	
2620000000	-9.07915504630565	175.587135897951	-4.67585533110618	50.1514587757843	-4.67777108314873	50.1521230276274	-7.53625014087855	-175.419348524209	
2620500000	-9.07873838486349	175.248415066794	-4.67551601497619	50.0259597277672	-4.67466986834581	50.0324842365025	-7.49872726885774	-175.509664545697	
2621000000	-9.05959027114365	175.219229028541	-4.67361264774307	49.9120065253916	-4.67346602773489	49.8974839338316	-7.54580124516445	-175.377960710127	
2621500000	-9.00253207431358	174.836782264689	-4.68554002623035	49.8097907438887	-4.68413289065071	49.825079968458	-7.44867160326366	-175.511863941113	
2622000000	-8.96265268251664	174.641356463611	-4.66265982001383	49.6874686801793	-4.66991867245407	49.7151956576561	-7.45319705339278	-175.427380943998	
2622500000	-8.95791595677789	174.451021690652	-4.6854239916549	49.5740589457291	-4.68955716139731	49.6409412675293	-7.40076227849253	-175.461272331147	
2623000000	-8.90424476953303	174.152419124647	-4.69528085087964	49.5818353591782	-4.69197416666485	49.5822616438639	-7.4334580593428	-175.543843785925	
2623500000	-8.91589803862931	174.177542994108	-4.68800637853878	49.4826444766675	-4.67761055499993	49.4792732949556	-7.38747427188607	-175.294861694625	
2624000000	-8.89023845643888	174.04070000683	-4.70396724375334	49.3853169462554	-4.68638190836162	49.3482192294901	-7.35064851290265	-175.415656859058	
2624500000	-8.84356549494001	173.660201051069	-4.6907369235562	49.2871298046692	-4.68035360521583	49.302523552296	-7.34104319713764	-175.365534007546	
2625000000	-8.80488842678619	173.492175764874	-4.67733430619383	49.1170859676331	-4.69060346647596	49.1235230178573	-7.32633587898996	-175.494120799211	
2625500000	-8.76481564273577	173.181888459885	-4.70403342535282	49.0874372272671	-4.69155505193521	49.0853234942918	-7.31189614480271	-175.482124995368	
2626000000	-8.77744096086692	173.089123069523	-4.69965202449015	49.0086204448679	-4.68886938935094	49.0588863409287	-7.29166177687889	-175.516873518216	
2626500000	-8.69805287009973	172.48524474242	-4.71556029971558	48.8853489806781	-4.70483832353513	48.8269787178161	-7.26516661389137	-175.393948386529	
2627000000	-8.6930805040269	172.863380705881	-4.69647008836284	48.7961498148427	-4.6746295940409	48.8641347574176	-7.23553056210762	-175.284125055801	
2627500000	-8.63928841341962	172.794240329512	-4.70812912933254	48.6283096544017	-4.68620825079674	48.7039411276494	-7.22041162762038	-175.37115076001	
2628000000	-8.642584994519	172.624256957452	-4.6970808749618	48.6743485799437	-4.69075215927305	48.6518994330377	-7.19650546357244	-175.066591113271	
2628500000	-8.60972876022951	172.512774168019	-4.71912725995479	48.5080916647171	-4.70346001204658	48.5090454647902	-7.143910916584	-175.436568705799	
2629000000	-8.51110229809712	171.989444382236	-4.72249281754287	48.4026415988109	-4.69843702301369	48.3795505551682	-7.17125922440083	-175.273793303844	
2629500000	-8.49221279115515	171.953794901656	-4.71351108227211	48.2995303533635	-4.71773592994464	48.2894539351494	-7.15965858833076	-175.19520278333	
2630000000	-8.46026637485454	171.698184309396	-4.70649962449557	48.2379107094912	-4.71732882234574	48.2678549467908	-7.13837688630084	-175.316837469669	
2630500000	-8.42972888200661	171.840750452204	-4.71534772046881	48.0266963310705	-4.71490022321133	48.1093764511841	-7.12415872885934	-175.128104052236	
2631000000	-8.43926987232585	171.683861210805	-4.71806722757326	48.0900334124458	-4.72203623220121	48.054580597494	-7.12864784459842	-175.006349398064	
2631500000	-8.37869338858636	171.509148129073	-4.73311049525376	47.9781592581677	-4.74184260386768	47.8827549501807	-7.07255183237211	-175.265657936089	
2632000000	-8.3022585418052	171.526223876719	-4.71932731226823	47.7786775505893	-4.71714333224201	47.8954117480733	-7.06617561343476	-175.13342313801	
2632500000	-8.33204690544421	171.623838687349	-4.72863686914439	47.8860136723155	-4.72593950748445	47.8517832121074	-7.07317771027843	-174.931885485625	
2633000000	-8.22460232138268	171.100092105526	-4.73644304380355	47.6798483064759	-4.73420352173017	47.6694117495956	-7.08088044383843	-174.949296464344	
2633500000	-8.23239709803311	171.389132359337	-4.74391789032944	47.6043244422615	-4.72269364273448	47.639746755971	-7.04768704730478	-175.144734687627	
2634000000	-8.21583089426495	171.297017318677	-4.75067576668883	47.4778918973905	-4.74463823087546	47.4940900449733	-7.03246413195873	-175.290447609009	
2634500000	-8.13598360520471	171.141627642226	-4.75711817469066	47.4059709706924	-4.75444353834386	47.408731416516	-7.07214604824127	-175.39293874	
2635000000	-8.118522048311	171.223672426113	-4.75298198882812	47.3898390430156	-4.73498689596483	47.2983072671384	-7.00879982787816	-175.027901514783	
2635500000	-8.07584744645059	171.142694055751	-4.7403917640009	47.315580247378	-4.74264888946351	47.2747045824308	-6.99835625390033	-175.123796561269	
2636000000	-8.10995735248659	171.284872445758	-4.76406873848059	47.3368678245838	-4.75611752219995	47.3039298295319	-7.02347429668277	-175.050393104282	
2636500000	-8.01323402668363	170.955479996198	-4.76028688335688	47.0994498936442	-4.75597823568111	47.1917560380218	-7.01560428489483	-174.946739315706	
2637000000	-7.94836914590291	171.041970007792	-4.74951685812371	47.0043208228139	-4.76215964386004	47.0362695354782	-6.96863409290806	-175.05919415666	
2637500000	-7.94428137646314	170.953568107565	-4.76012813806634	46.9561529775655	-4.75928890995045	46.9703106469138	-7.00455611141702	-175.017059262216	
2638000000	-7.93035682968114	170.96143859749	-4.76629909545419	46.9031590818503	-4.78638881018767	46.8940548738024	-7.00817365099581	-175.12675465207	
2638500000	-7.9004723531044	171.079074203305	-4.75546844782172	46.7964334444219	-4.78052093387387	46.865423664692	-6.95669241945713	-175.061455328979	
2639000000	-7.87619346342653	171.053188802568	-4.77266929569493	46.76547136152	-4.76665707061194	46.7683807341152	-6.99987006773663	-175.012277174679	
2639500000	-7.84908469390991	171.244356776648	-4.78259133744211	46.5987273723945	-4.76817963303069	46.6590004323185	-6.97347046725187	-175.225117335611	
2640000000	-7.78524821351973	171.058945707302	-4.77927862362794	46.6001238136921	-4.78496587678794	46.5693684574795	-6.97860487963687	-175.193480660269	
2640500000	-7.74053796823388	171.335372677747	-4.7701064079319	46.614659385129	-4.79141949515101	46.5455210207683	-7.00550736980605	-174.980501885574	
2641000000	-7.73468386717328	171.501822089529	-4.7940414928572	46.5326909159059	-4.76562182662656	46.4827244830689	-6.95825534587077	-175.01019199075	
2641500000	-7.74784822396086	171.24543787939	-4.80190777475216	46.4611934156646	-4.79019197772737	46.3730468137836	-6.95203026573834	-175.108493780991	
2642000000	-7.65325888357764	171.176372418496	-4.7991566992917	46.2119343660773	-4.78878844146123	46.2232309487932	-6.96168962601619	-175.005777900645	
2642500000	-7.66818097577819	171.493351157342	-4.80433936390261	46.2963902727211	-4.79474772370103	46.2386896725917	-6.97886252010942	-175.122926867051	
2643000000	-7.59182004902376	171.411403433524	-4.81373805057553	46.1408776366126	-4.78318506892201	46.1359762882151	-6.92810180646857	-175.068647660124	
2643500000	-7.57501495336939	171.641714275398	-4.78668822520521	46.1522029408202	-4.79501723110104	46.0822871094968	-6.96104069778744	-175.171191734187	
2644000000	-7.55304022822017	171.634688884081	-4.80051898461561	46.000650175081	-4.79231441937615	46.1042316424474	-6.9536172424412	-174.917131368038	
2644500000	-7.53264002727407	171.630419831519	-4.79944612776073	46.0163432300487	-4.83292881258976	45.9811260248577	-6.96347894858901	-175.227456728397	
2645000000	-7.47657472979486	171.920868862373	-4.80853303223841	45.9190826092499	-4.81237319731782	45.9920250275521	-6.99500091868567	-175.1907611684	
2645500000	-7.46240914384964	171.802226369588	-4.83081425066842	45.8829675597896	-4.81374021669166	45.9010157951449	-7.01685356321114	-175.173857702134	
2646000000	-7.4129848959675	172.017243093842	-4.80354699939979	45.7654548503821	-4.83731438517873	45.7712920236448	-6.99454022810525	-175.331827966348	
2646500000	-7.42027343924673	172.214043136896	-4.8083993370926	45.8081965829763	-4.84170912309908	45.7337426639081	-6.97517988761927	-175.057906422549	
2647000000	-7.39279104962919	172.163535299261	-4.83627508775058	45.7800318705509	-4.83167687425353	45.7273766645785	-6.98941008326131	-175.235274256289	
2647500000	-7.3697351202453	172.117222792134	-4.82804671763816	45.5814594866616	-4.82798085535926	45.6181653959848	-7.003690047415	-175.338729132013	
2648000000	-7.32059133912316	172.37216995485	-4.82952236299656	45.5004243109937	-4.83658662937469	45.5297467792407	-7.02624175176305	-175.397174434459	
2648500000	-7.33790064055037	172.412256844081	-4.86479812164383	45.5612716485746	-4.85441516896747	45.459735749537	-7.05073360477956	-175.518734893094	
2649000000	-7.31580252311415	172.566489222643	-4.84654232744385	45.5194433137877	-4.83765781360331	45.512596084472	-7.0268996717952	-175.340670541987	
2649500000	-7.27911770115226	172.726911602081	-4.84947677824881	45.5231161455994	-4.85051187000831	45.4688409602819	-7.05545151233988	-175.243252003296	
2650000000	-7.2440049629525	172.75886700428	-4.8572957337762	45.3485967602196	-4.8614781130605	45.3318082100601	-7.05103618290921	-175.305368420104	
2650500000	-7.21267301591396	172.832072638793	-4.85225383008491	45.2426448798901	-4.87785797739789	45.2725156853628	-7.07744596989882	-175.548327920753	
2651000000	-7.2298415648569	173.073025955576	-4.87604250572641	45.4038131556356	-4.86175850486988	45.3024647194399	-7.0945637709619	-175.350896323239	
2651500000	-7.22373599916676	173.294458456843	-4.88388872764856	45.2492161701661	-4.87477973066918	45.2200807336024	-7.09472174917667	-175.436669767459	
2652000000	-7.20446503433621	173.335129396888	-4.86589532980846	45.1501690890022	-4.8753213698419	45.1171226846083	-7.07680822808793	-175.385617227304	
2652500000	-7.16352661877809	173.510959223451	-4.88183705345785	45.0863666885811	-4.86647211437273	45.1573523788462	-7.09338961205293	-175.455117493924	
2653000000	-7.12519193679387	173.548084710741	-4.87988318770357	45.0853853451413	-4.88413630396055	45.0643992488504	-7.12789075423982	-175.549319892341	
2653500000	-7.10823975734257	173.746967060944	-4.8826603804197	45.0513738017304	-4.87757742434442	45.0863360979146	-7.14122263216304	-175.482174533826	
2654000000	-7.13336328670105	173.737506851294	-4.90382744625227	44.9910155861637	-4.90120166526909	44.9161929388578	-7.15120397873013	-175.637426316196	
2654500000	-7.09276865080249	173.912868248136	-4.90280337917718	44.9641530614832	-4.88406772058115	45.0145995196763	-7.1594120051033	-175.472624632945	
2655000000	-7.09196484758523	174.119948019231	-4.91175818651146	44.9709139868285	-4.91726779726065	44.9094016345864	-7.19060521134943	-175.651034133969	
2655500000	-7.05101198319088	174.507706958085	-4.88052816804016	44.8395793058057	-4.91709432786508	44.7839504967357	-7.16952600542492	-175.73483027554	
2656000000	-7.04366439579734	174.478052557101	-4.90655296265385	44.796467996206	-4.91290961478031	44.9066768863152	-7.20362628291094	-175.690061396171	
2656500000	-7.0519192446499	174.637190626334	-4.91695961803498	44.85118918087	-4.92607238167443	44.8494331259997	-7.23701447839609	-175.795150003172	
2657000000	-7.01491662876488	174.930517948447	-4.91103782817329	44.7473929960386	-4.93442334721382	44.6587133376928	-7.23108169355766	-175.969564423254	
2657500000	-7.00684085148985	174.917484691201	-4.90806210106586	44.7128138812544	-4.91428095084611	44.682459109453	-7.26216590533824	-175.928843210249	
2658000000	-6.99404181261959	175.078129053254	-4.92013922627189	44.7127233430776	-4.92106595460464	44.6049748825876	-7.26712276752657	-175.973768436527	
2658500000	-6.98505013281043	175.253647635953	-4.93617836927443	44.5646050323837	-4.91433315876914	44.6073939788416	-7.28309832127142	-176.107115156623	
2659000000	-6.95164853034922	175.540952890871	-4.90906109238998	44.5779984211405	-4.92328447554963	44.5550475998559	-7.27566871713323	-176.062003622381	
2659500000	-6.96183446414454	175.65350301256	-4.94235339936524	44.5278373304806	-4.92917897925358	44.5282756528211	-7.3217869650215	-176.051685536739	
2660000000	-6.9628168695582	175.928995221742	-4.93953976735962	44.5213846222786	-4.92637921113348	44.5604700767894	-7.33761955363032	-176.003352178911	
2660500000	-6.93570861058306	175.98245401129	-4.93548608725127	44.5068085441312	-4.95382021078593	44.4565160783939	-7.35595020896475	-176.19786109518	
2661000000	-6.9397920555833	176.155394984093	-4.95063021287619	44.4387753088809	-4.95008880555489	44.407077593203	-7.37953432803024	-176.280276426332	
2661500000	-6.93881340093653	176.306454536677	-4.95243157016666	44.4259056118062	-4.96232073326376	44.4925155144812	-7.40605098560607	-176.345752968926	
2662000000	-6.91763587309131	176.419845723581	-4.94322289895689	44.3803966556726	-4.96140763895869	44.3819812140715	-7.40280191364446	-176.359050213868	
2662500000	-6.889321349237	176.669650078947	-4.95535533863796	44.3005801408482	-4.95415512125984	44.2078692744975	-7.38893604130237	-176.493047859857	
2663000000	-6.90083587778201	176.801881608341	-4.94938111116728	44.2923774659057	-4.96169259512555	44.3347246212677	-7.43293601365452	-176.486768249084	
2663500000	-6.88836802352156	176.887251992886	-4.97446645393203	44.2175612330955	-4.95693514978291	44.220950990382	-7.4543795897257	-176.513322698982	
2664000000	-6.90262602513725	177.392674688533	-4.96284864653224	44.3026806024945	-4.97425646201629	44.2729531887192	-7.48415083597693	-176.522882394144	
2664500000	-6.8774173599878	177.154596718505	-4.97087264265774	44.1511137395389	-4.96017406294617	44.1865210873163	-7.47120551159914	-176.62791562562	
2665000000	-6.89847151708696	177.566902208972	-4.97293249158693	44.2562054340008	-4.97855875520966	44.2650586573931	-7.51925068581542	-176.477004489737	
2665500000	-6.91157422090682	177.876367686096	-4.97853126066931	44.205070363171	-4.97313605746885	44.2741510257385	-7.53091885824242	-176.627186786709	
2666000000	-6.89617119865623	177.837239477799	-4.98789102900485	44.1312814152114	-4.98492698245083	44.0912939632952	-7.55144727429563	-176.940731336874	
2666500000	-6.88664179374994	177.974476734396	-4.99499291881	44.0693956682381	-4.98259626839816	44.1182174307046	-7.54515439891328	-176.911647837495	
2667000000	-6.87332969721617	178.268827841846	-4.97678182887239	44.0477433278884	-4.97606354130283	44.061339075272	-7.57770416625915	-176.791660767854	
2667500000	-6.87678094606066	178.334711705856	-4.99567473748769	44.0451406057295	-4.99186010908758	44.0268069871528	-7.58967511758113	-176.910200319342	
2668000000	-6.8663354286981	178.461519597852	-4.98728290850056	43.9044617699843	-4.97815853699236	43.9781200585294	-7.58949549897444	-177.111335434871	
2668500000	-6.8611795746272	178.654114610674	-5.0037723067642	43.8917893311711	-4.98571707194542	43.9295157781483	-7.60126329557742	-177.193405405514	
2669000000	-6.88851568115259	178.83857205383	-4.99931434350826	43.9662046847657	-5.00719081739194	43.9795006216854	-7.64742426110158	-177.158479273446	
2669500000	-6.90858791805222	179.138941324777	-5.00971663691317	43.9067402129723	-4.99787535102455	43.9815482682664	-7.65306514967114	-177.178845008497	
2670000000	-6.90466960711034	179.236067079002	-5.00530561010726	43.87838229696	-4.9942419536945	43.8580920327422	-7.68032187509521	-177.282370624335	
2670500000	-6.88060854483228	179.366610900784	-5.00130370920164	43.7841761784325	-5.01136233255328	43.8573854566563	-7.70366785768903	-177.324410923265	
2671000000	-6.88558978092746	179.549774253198	-5.00812303335394	43.7857803310357	-5.0077356702653	43.8254542326731	-7.70968378752845	-177.540407220883	
2671500000	-6.88059200958344	179.741695803219	-5.0139249040965	43.7058162797207	-5.00564180644351	43.8411893742554	-7.69979695400223	-177.419453172059	
2672000000	-6.8907642085651	179.765771486458	-5.01878118504828	43.6249622292169	-5.00829316217857	43.731747272065	-7.74909487178199	-177.722830586309	
2672500000	-6.90185319877334	179.941248000988	-5.02577942780374	43.6564396646886	-5.00930229377107	43.7077604052697	-7.73863885440067	-177.745287332997	
2673000000	-6.89752020163906	-179.753142904549	-5.01000566144873	43.7305541932649	-5.02482142655342	43.7336858242148	-7.78896390409542	-177.592217907391	
2673500000	-6.88417366569824	-179.662584163945	-5.01685466182074	43.659497161905	-5.01517799795989	43.6661719630178	-7.74960299982751	-177.803186636097	
2674000000	-6.91911943899771	-179.581195462952	-5.02710492633866	43.5473865660631	-5.02027641134496	43.7197602824921	-7.8190079759851	-177.83039431474	
2674500000	-6.94093221258209	-179.424290616745	-5.02183788345248	43.5587551033354	-5.0079239850972	43.6521040463178	-7.8024284658653	-177.760681452095	
2675000000	-6.94266211514345	-179.100173661822	-5.03188812927206	43.5762269617804	-5.02566631391986	43.5599018334172	-7.83274124346664	-177.961780379421	
2675500000	-6.93797664353776	-179.220985284891	-5.02615153628654	43.5219949426947	-5.03532638732822	43.5519877757939	-7.84793394822446	-178.09708645316	
2676000000	-6.96155726656416	-178.983075229604	-5.02574624340818	43.5076788096027	-5.02091147089948	43.5943603599991	-7.87465194309292	-178.11551688812	
2676500000	-6.96098834458017	-178.599138124925	-5.01949789906317	43.493603731796	-5.03050874454321	43.6212675755321	-7.88114304357278	-178.006995148068	
2677000000	-6.9391093012232	-178.560575048054	-5.01998724906187	43.4993893861967	-5.0208457427752	43.5128152403892	-7.89915989490815	-178.172580632805	
2677500000	-6.99800753416214	-178.4186519143	-5.04542829351655	43.4591711858941	-5.01941544887797	43.4430644859119	-7.87970491852412	-178.402410784276	
2678000000	-7.00268810609907	-178.353474211928	-5.03442870759216	43.468956512195	-5.03097514050615	43.4269028314568	-7.90471187444242	-178.249987934505	
2678500000	-7.00521817914566	-178.15705793503	-5.03546511835556	43.332423781705	-5.02914423034319	43.4472016951685	-7.90502503640779	-178.35745605943	
2679000000	-7.01523038411495	-178.172859550795	-5.02904695171753	43.266944589105	-5.02782635799335	43.3582703695544	-7.91473525413243	-178.57202374906	
2679500000	-7.01506019975664	-178.093446445426	-5.03395192770759	43.2786507376421	-5.02614826214497	43.3321738139499	-7.95994301004084	-178.702874701584	
2680000000	-7.04927005721825	-177.789627296592	-5.03189684148465	43.2551973378586	-5.03277803896924	43.3823011869132	-7.95293403506106	-178.627999559265	
2680500000	-7.05647616639074	-177.602122810973	-5.04802383019794	43.2471442854823	-5.03293712379471	43.2725982334595	-7.96203904818706	-178.731693744237	
2681000000	-7.04876312434375	-177.600925448799	-5.03326494534993	43.1181674580523	-5.03225717049039	43.1578592151841	-7.95683917169502	-178.933594678491	
2681500000	-7.11208874176403	-177.517421061016	-5.04048879565936	43.1683454612863	-5.04978270383479	43.2266674195624	-7.98135449015193	-178.897882999163	
2682000000	-7.08493657356003	-177.351275405895	-5.03450415246531	43.0359778501892	-5.03139863734254	43.178011711135	-7.9663769472056	-179.054881655515	
2682500000	-7.11788991373847	-177.104562740698	-5.03249360747496	43.1429386270486	-5.04786892989563	43.1841934219163	-7.99639575009842	-178.921223851168	
2683000000	-7.15094123767091	-177.153234821741	-5.03803421610225	42.968119946733	-5.05400393385241	43.0244453105715	-8.00253496277988	-179.180340366517	
2683500000	-7.14251778666654	-177.138189477595	-5.04138687775016	43.0876770403916	-5.04384333251187	43.0861388434003	-8.02701688623629	-179.181379405363	
2684000000	-7.12261644005971	-176.968404347004	-5.03862212072517	42.9372557505258	-5.02012717419888	42.9962531175708	-8.00479368477354	-179.224934845602	
2684500000	-7.12463656998165	-177.001284396323	-5.03967205568146	42.8609476312773	-5.03474791185381	42.9116560368413	-7.97096949178254	-179.419735696082	
2685000000	-7.19666409816552	-176.885952044247	-5.04354371672	42.8832435229018	-5.03396750179094	42.9288595724042	-7.97362211580629	-179.278336246693	
2685500000	-7.17855612946292	-176.839393454616	-5.03084487938392	42.8319955742439	-5.041297887726	42.9601765292858	-8.02401587907141	-179.294743043853	
2686000000	-7.19707986624721	-176.648311904012	-5.0382382906482	42.8618954935541	-5.03825665297312	42.892670563653	-8.02001958941792	-179.389550321755	
2686500000	-7.26238115430389	-176.48029519108	-5.02961261917423	42.8132610882142	-5.04105938330536	42.8650448202685	-8.05008239197349	-179.461369292946	
2687000000	-7.2515172628927	-176.48722962545	-5.04472719392854	42.7553158797152	-5.0335246056868	42.7902169825647	-8.02693431099852	-179.582264259285	
2687500000	-7.25154686898596	-176.46258472884	-5.02622377144766	42.8083466259504	-5.03010825852818	42.6883799369107	-8.03187716256449	-179.427170944284	
2688000000	-7.2941687175864	-176.393903372214	-5.04743423186766	42.6506221502116	-5.0175109855299	42.6927374307536	-8.01195172934355	-179.578743849834	
2688500000	-7.3188184561739	-176.274413111478	-5.0300746807202	42.7904068245424	-5.02963999039264	42.6299975848521	-8.0377984221432	-179.593644809042	
2689000000	-7.33343516942376	-176.344756187002	-5.05413920051675	42.6221476034473	-5.02853769278512	42.6390670833947	-8.01840658363755	-179.897887084327	
2689500000	-7.34893644664896	-176.124322721489	-5.02763821963085	42.5107772579123	-5.02685242185091	42.5351511968183	-8.00925126445699	-179.794156386669	
2690000000	-7.35591779074787	-176.126771223417	-5.03461890129059	42.5203203670245	-5.02942143946997	42.5855448752406	-8.01136760625271	-179.836673144626	
2690500000	-7.39546015723677	-176.218812217083	-5.02416069534307	42.4265117800454	-5.04861882885009	42.5649213336839	-8.03003383690125	179.993301032655	
2691000000	-7.43505591235945	-176.312435188297	-5.0347493698208	42.3668754828978	-5.0426752849231	42.5158764380413	-8.04092666653564	-179.792306747122	
2691500000	-7.41540979003804	-176.127772134394	-5.01929354078539	42.406878117655	-5.02785502705909	42.4364744073238	-8.00990928138534	179.985975792136	
2692000000	-7.43411336739914	-176.100705041597	-5.02695251349585	42.3045011244942	-5.03169459225118	42.3473843948363	-7.98849056197462	-179.866646336395	
2692500000	-7.46177331555937	-175.988794125453	-5.02423512274059	42.2067697973936	-5.01628982168469	42.4148669744965	-7.97746988987287	-179.988177445809	
2693000000	-7.46974995083076	-176.037906809914	-5.03095577679548	42.2380540103853	-5.02255646139164	42.2576984267905	-7.98322219778576	-179.902706154411	
2693500000	-7.53420308067437	-176.021223159798	-5.04041312218678	42.2009358673426	-5.02996428392533	42.1950087274051	-8.02701541131189	179.870119827918	
2694000000	-7.53364393046047	-175.930874390312	-5.03701644632799	42.1300417406407	-5.01486755988879	42.1551398015396	-7.97246549774504	179.86241402392	
2694500000	-7.56575523645814	-176.148908438005	-5.02237627979585	42.1315286631543	-5.03409385183005	42.1082195017807	-7.98524141893824	179.916012981993	
2695000000	-7.57516878331307	-176.193469899477	-5.03384680401938	42.0672595124328	-5.03129837174411	42.1560320752048	-7.96983099281879	179.752931084877	
2695500000	-7.58779235433631	-176.052518671743	-5.04219670089341	41.9951800114706	-5.01637084862478	42.0317799921252	-7.96650658187785	179.773848937863	
2696000000	-7.62762287004076	-176.067164239209	-5.01249149205756	41.96148609049	-5.0278523506321	41.9860236219906	-7.95539585401183	179.830200410657	
2696500000	-7.62638009821715	-176.075283750373	-5.00902214493484	41.7947900310978	-5.02172902950876	41.9346564760803	-7.94490918571587	179.690788842457	
2697000000	-7.67089176221093	-176.02871042917	-5.02392645373878	41.7843073588225	-5.02995801116421	41.9331737590035	-7.9115423034322	179.760792142805	
2697500000	-7.69611430716148	-176.191205243268	-5.0247568302041	41.7169478421336	-5.00868902021977	41.8221391691261	-7.92048964468351	179.710823531771	
2698000000	-7.69914714707833	-176.198726964955	-5.01785115999557	41.7509854407414	-5.02916286871264	41.8247782421119	-7.94175434995567	179.601536863746	
2698500000	-7.69999318965752	-176.209444799815	-5.00344909275293	41.6251485279279	-5.01411031456112	41.6171180295024	-7.89722541214876	179.771000003379	
2699000000	-7.6992910463495	-176.253490877297	-5.00835868163128	41.5412177377713	-5.00164741447014	41.5641687713725	-7.89635907917028	179.509184077238	
2699500000	-7.77145934827435	-176.37557514325	-5.00987321293058	41.5059105566123	-5.01840574215449	41.5246819359768	-7.87632063595705	179.606739596069	
2700000000	-7.78840377600699	-176.489576236567	-5.01309552691321	41.4053394758038	-5.02483060994518	41.6271862639635	-7.86023714503491	179.558398318436	
2700500000	-7.82349584757184	-176.382230409306	-5.00102395476652	41.4290204350663	-5.02292407300038	41.4924057642841	-7.84627391607917	179.791530258405	
2701000000	-7.83612547890436	-176.395986556872	-5.0112937435395	41.4145621269342	-5.01675289256318	41.3072901356609	-7.84630790335286	179.657720366135	
2701500000	-7.87876759995443	-176.624900191879	-5.01009985205398	41.2028510691851	-5.00064707883115	41.2574410226299	-7.83651944760079	179.424753572966	
2702000000	-7.90166800750124	-176.609779133599	-4.99273810961923	41.381203344391	-5.01262437951726	41.2425637563069	-7.80201760064028	179.595793855051	
2702500000	-7.88134987675557	-176.72451335201	-5.00993357216123	41.0900080754865	-4.98957946678023	41.278128635647	-7.79121531424574	179.580771572907	
2703000000	-7.92655771271175	-176.956464692954	-5.01333138327325	41.0860669574117	-5.01452774000347	41.1180720202334	-7.79286604793539	179.518959523628	
2703500000	-7.93644336947437	-176.89714135724	-4.99312267784125	41.0726693550121	-4.99590515189976	41.0681062221499	-7.76533571767573	179.672924017885	
2704000000	-7.9584511500309	-177.115511670139	-5.01052156002741	40.9328711595695	-5.00791488523793	40.9843402073851	-7.75817466214377	179.494475255571	
2704500000	-7.9907299470168	-177.103662488678	-5.00276524116888	40.8871123024894	-4.99299445519033	40.9226425556769	-7.72733896304652	179.581942753718	
2705000000	-7.98826020636547	-177.393982112845	-4.99274015682511	40.788975008812	-4.99957858209621	40.728992427795	-7.72059161989895	179.54889452411	
2705500000	-8.03181910530396	-177.476249253304	-4.98809472561435	40.7814947247012	-4.99567136998562	40.7902078611107	-7.71906585895682	179.691821997754	
2706000000	-8.01945403699676	-177.306066772755	-4.99695068283943	40.6832456078269	-4.9916054364803	40.6574944827557	-7.67914527489079	179.706609165942	
2706500000	-8.06312659589178	-177.98108124543	-4.98418921184611	40.5667123057901	-4.99536496755606	40.6000276764384	-7.67116976241255	179.493381754659	
2707000000	-8.07604086263651	-177.756076264111	-4.99515516522267	40.4397776457867	-4.98961913504073	40.6104198791031	-7.65615109804966	179.734900201414	
2707500000	-8.08282835176471	-177.977856224854	-4.99981132808917	40.4796740711394	-4.98738248712956	40.4928881076508	-7.65700444619941	179.745957131737	
2708000000	-8.08639956658525	-178.091099615377	-4.98879220265014	40.4526758730513	-4.99026144827762	40.4204742490049	-7.60392827272897	179.754460712298	
2708500000	-8.12493674933333	-178.235283823099	-4.98266880399319	40.3176900394115	-4.99066720278253	40.3486101580919	-7.59843720987694	179.609939929633	
2709000000	-8.15857158294715	-178.42533829964	-4.97787717265164	40.2994821106677	-5.0011860585074	40.344269458533	-7.56920772620143	179.651831052002	
2709500000	-8.15621204496595	-178.547353752975	-4.99041165940374	40.0719884123575	-4.98076720994967	40.1506548479446	-7.52976634130437	179.762841443592	
2710000000	-8.18120337193322	-178.826634803736	-4.98707392343446	40.1207584040706	-4.9881221695103	40.1115745544559	-7.52346129116592	179.809805593769	
2710500000	-8.17927745354707	-178.850953526404	-4.9975582304237	39.9743011370515	-4.98822265116265	39.9505241989149	-7.52387636124728	179.8098167422	
2711000000	-8.23054104401335	-179.029956724797	-4.98739563396766	39.9232923197937	-4.98714534050051	40.033581067473	-7.50127036816367	179.743268162106	
2711500000	-8.24213915262068	-179.247350509332	-4.97950736912344	39.8231252944363	-4.98998094133098	39.9461683086409	-7.45158231284348	179.760783621556	
2712000000	-8.25241509374884	-179.328520846557	-4.98940448156705	39.729831535763	-4.99767943304187	39.7704861300962	-7.46595111132362	179.794532512874	
2712500000	-8.27098352795794	-179.737393967112	-4.9961758047128	39.6025612815223	-4.99677418589174	39.6195589686932	-7.43930853555469	179.800736544016	
2713000000	-8.25281674292931	-179.920794103705	-4.98599347298617	39.6040719890354	-4.97026919533873	39.5652740510887	-7.44338923339205	179.781219782778	
2713500000	-8.26126122742589	-179.895503372195	-4.97879200771288	39.4559592777806	-4.97861891925696	39.5409482569102	-7.3776557098755	179.819205863884	
2714000000	-8.25777578442117	179.747803982565	-4.98502901798168	39.3743885507988	-4.9941396709924	39.3317940485465	-7.37390744282338	179.69319915181	
2714500000	-8.33001268812289	179.713704384484	-4.99179196739057	39.3433406912557	-4.98443342442552	39.3728246222155	-7.38895326204921	-179.948229078704	
2715000000	-8.27717701048603	179.439871020628	-4.99158779241296	39.2046223435516	-4.98807620402013	39.2539297621053	-7.3303362925653	179.661185837475	
2715500000	-8.32685526619457	179.131136974776	-5.0028018717354	39.0540031474868	-4.98678039653252	39.1446829735656	-7.32079613102773	179.776919515601	
2716000000	-8.3112856194468	179.066259060519	-4.9944383591414	39.060681299208	-4.99408845167492	39.1128770802388	-7.34283538894179	-179.974862620405	
2716500000	-8.30125743648243	178.821159133844	-4.97546357255822	38.9667398347427	-4.97157450413503	39.0638075917402	-7.28631578888891	-179.896412468491	
2717000000	-8.3239311203356	178.64386076076	-5.00068518855031	38.8302614635953	-4.99238667697952	38.8365810843582	-7.27900197122986	179.898620912928	
2717500000	-8.36469278730788	178.445314870293	-4.98266265599641	38.7648059648578	-4.98774086777478	38.7688627789573	-7.26633301293312	179.925160216382	
2718000000	-8.34958165348905	178.120546748056	-4.98745658321034	38.7263222813907	-4.9810046947437	38.7368994244281	-7.23845822366583	-179.832642690619	
2718500000	-8.31981339015168	177.877193454415	-4.99528404497919	38.511436258938	-5.00120176365351	38.5892548393135	-7.20859290428143	179.908029941651	
2719000000	-8.36271930720991	177.461448439043	-4.98408697472841	38.4924253829026	-4.97861552566731	38.5340041485716	-7.1680263076685	-179.740044351345	
2719500000	-8.3664541689553	177.281355344702	-4.98715636269902	38.5103037392713	-4.98408629838779	38.4470945336429	-7.19622920963707	-179.827977325462	
2720000000	-8.3516489648051	177.192393683922	-4.99702225324859	38.3725749972174	-4.99891988082238	38.3215350487054	-7.14047796955588	-179.941250362983	
2720500000	-8.38010232436084	176.89287161746	-4.99672043982723	38.1852596704053	-4.99421531579317	38.2639491369065	-7.14709046661072	-179.920124112542	
2721000000	-8.37946896594314	176.982792886392	-5.00353856949494	38.1722207138855	-4.98469989907848	38.1352674570716	-7.1407770549903	-179.772679004026	
2721500000	-8.36903401636717	176.529174287447	-4.99894861910668	38.1033603252167	-4.98278723515533	38.036557583256	-7.08630206173921	179.984061083616	
2722000000	-8.32563522824523	176.105501684343	-4.98764159235194	37.8759494805631	-4.98798649729751	37.9574530184875	-7.04407019068667	-179.7185221548	
2722500000	-8.33967445495329	175.981529348603	-4.9988041982531	37.8491847361012	-4.97746069365015	37.8806676947948	-7.08933869833094	-179.789395890799	
2723000000	-8.35734597514986	176.028022044345	-4.99393290310803	37.8497890845045	-4.99124449534411	37.7814601108318	-7.04895190658495	-179.81923284751	
2723500000	-8.33273065481322	175.43591327415	-4.99248226077004	37.6711232701335	-4.98585589096889	37.5873300695029	-7.03483336714437	-179.741622130563	
2724000000	-8.35360259323538	175.280730736398	-5.01571180754365	37.4680783201547	-5.00148219302493	37.5693704988752	-7.02965695020376	-179.832900287294	
2724500000	-8.31204319140833	175.361995835821	-4.99260464429063	37.5504149399619	-4.97912603205683	37.5619554719231	-6.95377201322028	-179.804757191122	
2725000000	-8.33246486992594	175.020700482607	-5.0017519582325	37.2531307946849	-4.98825002139156	37.3832304450701	-6.96883238641273	-179.835129317783	
2725500000	-8.31109585334493	174.858421063848	-4.99222468997063	37.2590307965108	-4.99196370001723	37.2336809181942	-6.98037260139738	-179.682995977673	
2726000000	-8.29429478273452	174.438861932051	-5.02067235266847	37.1575277314924	-5.01588910489145	37.1563255162041	-6.98343168967487	-179.610232285103	
2726500000	-8.34315288298076	174.41185654469	-5.004238876052	37.1382729542345	-4.98980930122379	37.0835606313743	-6.94021842281786	-179.605318924085	
2727000000	-8.31154761998331	174.166602725835	-4.99650115165503	37.0082603280045	-5.00573974456068	36.9900380321175	-6.89387423310434	-179.544157563461	
2727500000	-8.32273341511783	174.043331732841	-5.01314674336364	37.024498495047	-5.01610870325906	36.8754627671739	-6.93555575771198	-179.659349187009	
2728000000	-8.27224117674148	173.626764178799	-5.01230603897106	36.7737387881786	-5.01298340812909	36.7396450668852	-6.89387324433059	-179.842705354532	
2728500000	-8.30042620611121	173.529046586764	-5.02976563077081	36.6684253366136	-5.0193843929745	36.6533367809219	-6.91675710222988	-179.605717197114	
2729000000	-8.28584759349625	173.469357758197	-5.01827789658434	36.6383613400634	-5.01546152540381	36.6551851552348	-6.8803894218403	-179.55389759192	
2729500000	-8.28346800020464	173.207895918103	-5.02752612068707	36.6280210865229	-5.00220437123195	36.5389595152493	-6.83708246905694	-179.596293487018	
2730000000	-8.27430561144981	172.879327394679	-5.02520138230817	36.4709249424346	-5.00991639527352	36.4219360823648	-6.83611646517309	-179.671265614077	
2730500000	-8.23481612393789	172.591807655283	-5.02957295119755	36.4041817319916	-5.03116562916991	36.3400221221166	-6.84048561133355	-179.763760240404	
2731000000	-8.22883762280243	172.377164827845	-5.02490857431271	36.2361364958099	-5.02648882909289	36.2217776244966	-6.80111524747062	-179.67005065378	
2731500000	-8.19604574532017	172.33752385111	-5.03704701447849	36.1358603001568	-5.02201553879491	36.0506193945069	-6.78572317250233	-179.703859171985	
2732000000	-8.21451674664982	172.117456378818	-5.03001485405315	36.0614069680909	-5.04629754488893	36.0873624097851	-6.8079060044421	-179.685882355536	
2732500000	-8.18483169280237	171.809010330509	-5.0472901125747	35.9233736527682	-5.03328634391559	35.8855597176705	-6.80609579642031	-179.579239309643	
2733000000	-8.15647343562455	171.706869499852	-5.049623254236	35.8144302005797	-5.03973766478897	35.8899980782466	-6.78223482593038	-179.749158003421	
2733500000	-8.18976076935457	171.506337398488	-5.04039404694207	35.7883496101809	-5.05127916458943	35.7802076070581	-6.77683889063836	-179.607565051067	
2734000000	-8.13719131049327	171.566439091927	-5.04278227234131	35.7240365950637	-5.02528950709889	35.6124589518207	-6.71378631440259	-179.740974629902	
2734500000	-8.16645876282159	171.242495116408	-5.05199144661389	35.5333221665253	-5.04533853863362	35.5897318474104	-6.74961843642508	-179.599111898437	
2735000000	-8.13229074281434	171.075544100704	-5.0615410634405	35.483818647242	-5.06150130589195	35.4086091065709	-6.77551115440452	-179.864487142275	
2735500000	-8.06415956148431	171.111319550854	-5.04943593357302	35.3826124116921	-5.0671188980002	35.4237907607656	-6.76276314696565	-179.686491575887	
2736000000	-8.07270455395241	170.67207961944	-5.0613340431928	35.2280664014684	-5.05180675440085	35.2336394989061	-6.69610696267582	-179.688537318466	
2736500000	-8.02036288249447	170.564511260638	-5.07450349692041	35.0873764363277	-5.04815397488118	35.2378079235394	-6.71274522940948	-179.655787855466	
2737000000	-8.01974605650315	170.61895192338	-5.04926824602844	35.0636476428725	-5.05930331975108	35.0682968438215	-6.71513954037577	-179.668309034723	
2737500000	-8.00189122551822	170.465800090867	-5.04798041226449	34.9937992607956	-5.06923356485533	34.9633949442904	-6.69557735570162	-179.745445603989	
2738000000	-8.03031439386463	170.340460920997	-5.08252113156399	34.9404422705277	-5.06117480089529	35.0255527102646	-6.70641996170936	-179.590267268951	
2738500000	-7.98135302353702	170.004053064311	-5.07901925160977	34.7783055369502	-5.07006907373532	34.9004893044885	-6.68970764693328	-179.577154257171	
2739000000	-7.92126384683745	170.016219536658	-5.07915927107049	34.6460880945522	-5.08345247369069	34.7269081415448	-6.69501122809442	-179.807267440507	
2739500000	-7.94547434325155	169.929423440756	-5.07450637222349	34.7294175461394	-5.08459021314594	34.7476473146278	-6.70649668912303	-179.688380916911	
2740000000	-7.95013564034149	169.871880916413	-5.09327032830041	34.7257986662588	-5.08533972578089	34.5823178738463	-6.69626169264093	-179.651481794741	
2740500000	-7.91758225527254	169.673771382646	-5.09903128175951	34.6077186590826	-5.06596457985231	34.4935124501088	-6.63837245190923	-179.48588102243	
2741000000	-7.89641370838049	169.511316272069	-5.08668669627877	34.4128915294446	-5.09247348727688	34.4284710608861	-6.68327148137176	-179.742670300104	
2741500000	-7.84500748257622	169.405272865168	-5.09165774093309	34.335882817774	-5.1065573591059	34.3928963013055	-6.70495253402192	-179.765908668488	
2742000000	-7.82675973070392	169.274094729699	-5.09569222326031	34.2544362370118	-5.10738099945606	34.2433485682743	-6.68376636460504	-179.936931492264	
2742500000	-7.82802912118944	169.222054410762	-5.10771712545754	34.173426186018	-5.08229088269823	34.1593009193393	-6.62290241801911	-179.61104878481	
2743000000	-7.7996380523995	169.105667369412	-5.11340753184726	34.0688782378218	-5.10928069141413	34.0352828014916	-6.66134017726202	-179.938172740994	
2743500000	-7.75063494522613	169.041514205454	-5.11940728499405	33.9942620066064	-5.10205643580501	34.1187671940774	-6.67065681166708	-179.651756215477	
2744000000	-7.73083989272691	169.075513601226	-5.11583267537094	34.0066820234655	-5.11552185263966	33.9540613972706	-6.67374799625208	-179.955398885357	
2744500000	-7.72937283301715	168.571381856937	-5.13498651552176	33.7751393361534	-5.10909858738148	33.8119047904804	-6.66998891485178	179.975367773505	
2745000000	-7.68989770709317	168.965407606515	-5.11854506969141	33.7370909947437	-5.13099267469967	33.7611397846638	-6.66523563930694	-179.90497747472	
2745500000	-7.68093723182626	168.691302389633	-5.14120725066776	33.6545509765326	-5.13034186598302	33.807425632601	-6.68983244065309	-179.952919575713	
2746000000	-7.64175417334965	168.900132089688	-5.13587378599856	33.6459238406202	-5.13268331845489	33.5953877418229	-6.6643800430342	179.989348281426	
2746500000	-7.6241774160127	168.697614027855	-5.15018271296338	33.5140796165095	-5.13736939291867	33.5141851928672	-6.68154422273627	179.898421241455	
2747000000	-7.67174803848494	168.354590910982	-5.1664420023917	33.4650292626431	-5.14630931901085	33.4501739430812	-6.6789233914591	179.753438717542	
2747500000	-7.58755507799121	168.545020455661	-5.15840442403027	33.3433599040738	-5.16729308606125	33.4583755425936	-6.73485721395181	179.672374913172	
2748000000	-7.57371779767338	168.61692768576	-5.15219978190875	33.3476333859653	-5.15050999659674	33.3942695980565	-6.68127405714363	179.941976081703	
2748500000	-7.54845014230482	168.38424092185	-5.16675642278588	33.1552961254496	-5.15782410600287	33.300642872477	-6.68849053641279	179.730587743476	
2749000000	-7.52218316821037	168.54588105944	-5.16000020577799	33.1616197680589	-5.17841594193279	33.1373011494115	-6.70801058298464	179.500843362686	
2749500000	-7.52218807811556	168.310815578198	-5.18822709535295	33.0584368462299	-5.17246125099231	33.1135224742453	-6.69411868953478	179.668415649202	
2750000000	-7.49252491088685	168.47653537677	-5.17554498878595	33.0304217119509	-5.17661547113867	33.0257998699758	-6.70832061636829	179.609777996706	
2750500000	-7.44191709806777	168.241911553231	-5.1760898817262	32.9959033309066	-5.16857556964928	32.9212521231146	-6.67719905938176	179.686151725598	
2751000000	-7.44059436473276	168.245724803157	-5.1947370454256	32.8791211132771	-5.18898634192864	32.8403990226382	-6.73428378984557	179.450092844113	
2751500000	-7.41889324716656	168.143220452542	-5.20244366066534	32.7948233873039	-5.17894850598243	32.9081918434761	-6.72762498927036	179.574525204167	
2752000000	-7.40973885685974	168.368362095271	-5.20815008189953	32.7796300644495	-5.18990196891342	32.8098799684024	-6.74362691765901	179.492117141376	
2752500000	-7.3939026849118	168.04851731383	-5.20769970226	32.6687553302142	-5.21703595585557	32.5895603725354	-6.75287291454427	179.280881269151	
2753000000	-7.36760928593834	168.325973472332	-5.2101560423434	32.6355181146046	-5.20927251307683	32.6164048074549	-6.76963135314851	179.365681364857	
2753500000	-7.31305408702006	168.588710440071	-5.19829753211372	32.5597000812611	-5.20120807433369	32.6143576867418	-6.74868322468353	179.46647376285	
2754000000	-7.3284227462088	168.493168375849	-5.21818114742084	32.5702427597234	-5.2121831840138	32.556785124815	-6.76207557481504	179.363458231979	
2754500000	-7.29114819770548	168.366993102636	-5.22184748878565	32.49300398426	-5.21357966485427	32.4528374701996	-6.78652647820412	179.142533028776	
2755000000	-7.27359878276637	168.498475503322	-5.21385397890826	32.3883605929588	-5.23083736562449	32.4718562314656	-6.79860553241522	179.249029833341	
2755500000	-7.28563957088693	168.332463340529	-5.24388905330258	32.3365172767755	-5.22696800577449	32.4058914662027	-6.77975885285988	179.151828502135	
2756000000	-7.2208320786588	168.73301683064	-5.22728183374729	32.289802229829	-5.21984963772998	32.2827384191283	-6.77414193936925	179.058710245719	
2756500000	-7.24818657074333	168.680777786372	-5.23331236362352	32.2514065528748	-5.23593257668286	32.3702235094012	-6.80165540788411	179.248928865983	
2757000000	-7.22252289555644	168.533585865223	-5.2390635797659	32.1625606199988	-5.23671752024408	32.1323554877275	-6.80216999827826	179.076414851481	
2757500000	-7.16261359576711	168.418692194702	-5.24961705778214	32.1189125113164	-5.24019099919283	32.1323942310326	-6.81786793444159	179.005353023181	
2758000000	-7.165617715554	168.669871301801	-5.25788769583216	32.0630923538791	-5.24547439774318	32.0458271904901	-6.82011957500404	178.904471359291	
2758500000	-7.12455938530132	168.630671785077	-5.271561466258	31.8751283371316	-5.25072723359279	31.9497563798274	-6.82432696732419	178.775245807901	
2759000000	-7.12132330624739	168.612727267635	-5.27076799474389	31.8699988813077	-5.26973174598376	31.9741785519409	-6.86399928711593	178.722822933547	
2759500000	-7.10891363961883	168.910481179765	-5.26952124126769	31.8217034428996	-5.26923703631336	31.95016387507	-6.88843334385538	178.82445275156	
2760000000	-7.09358363664975	168.81165383018	-5.27724952793647	31.9074308498482	-5.2745691920096	31.9499392814716	-6.87900771509914	178.833035018784	
2760500000	-7.05607405239007	168.86150136661	-5.28655232268817	31.7960935507499	-5.27461043548612	31.8328475452654	-6.89064259623232	178.575109376655	
2761000000	-7.05132668776355	169.036364801959	-5.28714460348233	31.7087293146579	-5.28647985233508	31.7676582800018	-6.90358531673305	178.557270491257	
2761500000	-7.04010914153496	169.155423957924	-5.28821151348254	31.7550712491793	-5.28555520758698	31.7724753734364	-6.90107371083822	178.546760453562	
2762000000	-7.00832627499309	169.10183512754	-5.28128231336144	31.6110633419406	-5.29559365104607	31.6742719813058	-6.92567551783599	178.3488069023	
2762500000	-7.01222384965039	169.354466144363	-5.29752820176443	31.6693975652892	-5.29387240533182	31.7091542246563	-6.94622239380903	178.384024881207	
2763000000	-6.98033572772277	169.301838306953	-5.30233157399716	31.6115317874972	-5.29336201315619	31.6012920382531	-6.92833154571777	178.500679622014	
2763500000	-6.98653937660808	169.535393087073	-5.31585436893523	31.4877045645002	-5.29647168262124	31.5646088393112	-6.9442123163149	178.283628597908	
2764000000	-6.94439880519174	169.304591212305	-5.30873665767889	31.4460017105964	-5.30730288197317	31.4746015012492	-6.93397181672681	178.210937940877	
2764500000	-6.93295205479475	169.595508916919	-5.31514382878297	31.4239162904394	-5.3212051827249	31.4347664420602	-6.95778127142917	178.054186179929	
2765000000	-6.93645241050305	169.770475369691	-5.31432199264764	31.3688024052503	-5.30376914391628	31.4146769862869	-6.9718587276919	177.994510867744	
2765500000	-6.89272281437901	169.72379967564	-5.32991277466942	31.3173809002356	-5.32270767430729	31.3540441197816	-6.99478277642867	177.9150492739	
2766000000	-6.8782525894563	169.948334574227	-5.33756580605416	31.2890034626056	-5.32427647648462	31.3126570809894	-7.00759195805152	178.070375980271	
2766500000	-6.87830800558796	170.055777664724	-5.32420672407101	31.3273621496795	-5.33251129559664	31.2755881011174	-7.03868470971051	178.044855500612	
2767000000	-6.8576162454734	170.145271172794	-5.34031772327906	31.2369438663852	-5.33456672697171	31.2582755684506	-7.02577717135412	177.858885938282	
2767500000	-6.86478288308047	170.295571583679	-5.33991027895542	31.2741280127706	-5.33538011200387	31.1574714905644	-7.03650465341231	178.000408792133	
2768000000	-6.8275286257559	170.358053070258	-5.33617168755425	31.1482256161155	-5.32839062777642	31.0939967189723	-7.02926123730319	177.793667847463	
2768500000	-6.82925814942883	170.464436259751	-5.34263783261071	31.1780704335153	-5.32767505076538	31.1420507139342	-7.05513147731209	177.817628320666	
2769000000	-6.79226535847778	170.523279570458	-5.34998959240675	31.0320034711306	-5.34681866052024	31.1876219690371	-7.07225093876296	177.624141612719	
2769500000	-6.79603206567845	170.811249281595	-5.34049778595847	31.0483802694056	-5.35509302245496	31.029289478334	-7.05374197240927	177.551982701006	
2770000000	-6.78739251917706	170.915786971244	-5.34973706113807	31.0279794438537	-5.33799868735756	31.0478951112311	-7.06458237336123	177.631479116733	
2770500000	-6.75437879626387	170.895801481945	-5.36743758934487	30.9145775343579	-5.36399211329573	30.9969662413114	-7.10141110770474	177.561626473128	
2771000000	-6.76171139551532	171.077355047268	-5.35952322269582	30.9350903872218	-5.35565312658796	30.8654305753816	-7.13167002587971	177.553845727284	
2771500000	-6.75665583159696	171.276327472483	-5.37424153081151	30.8556980418478	-5.35624174138207	30.9600885268795	-7.12025223396186	177.481837868223	
2772000000	-6.75201887848872	171.104509525204	-5.38080097097985	30.9105798307503	-5.37410570680469	30.8770341704649	-7.14009573601544	177.273760751352	
2772500000	-6.73912313112151	171.357869766824	-5.38022209770685	30.8371802947735	-5.36875173446365	30.7632245214709	-7.13426827087599	177.201566327008	
2773000000	-6.71571558615807	171.515537884527	-5.380304349133	30.7758892490791	-5.35063590335611	30.7557306542012	-7.13860735774606	177.228148774364	
2773500000	-6.72384455926895	171.782626373898	-5.36471965822509	30.7810933504358	-5.38039289022768	30.8414864323849	-7.16206471611861	177.347683668775	
2774000000	-6.73332491153615	171.908417355459	-5.38274175939256	30.7554227224135	-5.36924817302828	30.7851594142817	-7.15429886532891	177.129643786755	
2774500000	-6.70914567049885	171.952298107328	-5.37983916564539	30.7519728427318	-5.36503990976296	30.7495997106666	-7.16096831872418	177.180053663845	
2775000000	-6.68338253756512	171.99866269684	-5.39126258253185	30.6768221480438	-5.37881462648612	30.6440019791468	-7.18895808523732	177.053027845981	
2775500000	-6.68586793867896	172.461526798919	-5.39112547713838	30.723611714941	-5.36794543106379	30.6923465295917	-7.20298158800257	177.146028649497	
2776000000	-6.70730729959428	172.321883691412	-5.4058076410736	30.6303997965151	-5.37490725765371	30.6395757761312	-7.1902146574177	177.165120239188	
2776500000	-6.69149540871607	172.605159847671	-5.390420550581	30.5550122556836	-5.38212249803253	30.5810312720362	-7.20377213883925	176.874753294591	
2777000000	-6.66149668754251	172.689702639918	-5.39239539696901	30.5422160924506	-5.3921730662196	30.630594597801	-7.22266063620628	176.906297349754	
2777500000	-6.65240561493409	172.716748346514	-5.382328561967	30.5896837086613	-5.38105327797832	30.4952290770327	-7.23120314034714	176.832918141525	
2778000000	-6.64914285999313	172.889146228187	-5.40774807738499	30.4781618902731	-5.39429508273378	30.4734293279958	-7.2402883676028	176.773784549941	
2778500000	-6.67951790621736	173.271017232552	-5.39170557749843	30.5533394709769	-5.38860649705806	30.6509357217895	-7.23208131137757	176.90775663914	
2779000000	-6.6434190153988	173.336082685371	-5.40475585208264	30.5522750074845	-5.40129822849903	30.5408005005897	-7.25660920960922	176.795283366572	
2779500000	-6.65333593803869	173.457769526862	-5.3845861580365	30.4793462250875	-5.39845199542037	30.5566749740857	-7.27815115203858	176.726057471929	
2780000000	-6.66079908692167	173.496822552745	-5.39612452313077	30.4706016813473	-5.39491953878476	30.4795931498662	-7.26971520677967	176.70402545827	
2780500000	-6.62918599268244	173.626638574047	-5.40810907399749	30.4272444685309	-5.40416906678358	30.4423226949393	-7.29021354864146	176.600546695139	
2781000000	-6.62871219269818	173.745419479978	-5.3988665157231	30.3174823505076	-5.39826177362264	30.3988059824616	-7.27944607381988	176.482294752499	
2781500000	-6.63912597160053	173.843193545981	-5.39653124468576	30.1984239326276	-5.38392398858833	30.3893500394476	-7.28952035812197	176.492798145283	
2782000000	-6.66965794330678	174.207764701749	-5.40443045877957	30.3835225361933	-5.40098934842923	30.4209685048358	-7.29559974473919	176.591019719415	
2782500000	-6.63645086558867	174.188873768761	-5.40726948252749	30.3112889086692	-5.40706338464207	30.2451724129529	-7.31066085693188	176.497158363269	
2783000000	-6.62296763312686	174.440157472652	-5.41459864574434	30.272089136616	-5.39867266092083	30.2911730337204	-7.31256569030034	176.404387139522	
2783500000	-6.65748360510629	174.595384936116	-5.39873770178916	30.3124945349811	-5.38367243738789	30.327671033982	-7.29801059195344	176.546979562558	
2784000000	-6.61134282610901	174.674107095496	-5.38604128286678	30.1296714285226	-5.39817134504658	30.1454742647315	-7.28360713964498	176.513266933812	
2784500000	-6.64024597025155	174.863771341815	-5.39835664755413	30.2070133980234	-5.40886691707071	30.2255382089984	-7.34111714211544	176.474743586953	
2785000000	-6.63839061617866	174.923309588446	-5.41039736165369	30.0333503873804	-5.41336304219479	30.1551613715105	-7.31363357648811	176.249715548065	
2785500000	-6.62199293659552	175.23279402734	-5.38405927623481	30.0528216561747	-5.40452958194298	30.0594459397456	-7.30076631615368	176.405990593806	
2786000000	-6.62910794838376	175.307805236883	-5.40531695816689	30.1220857697503	-5.41080387801641	30.0960251148141	-7.3232090050651	176.304749944952	
2786500000	-6.63256702714056	175.54891535942	-5.40457905859425	30.0647848675452	-5.41199763836331	30.144129569059	-7.30721156919592	176.311576632412	
2787000000	-6.65404466538322	175.532162311242	-5.39550805713905	30.1031161415387	-5.41749864106177	29.9933142629052	-7.32483886937975	176.252457214664	
2787500000	-6.63528948442509	175.534421734288	-5.40065156737216	30.0990179030912	-5.40967440944035	30.0016504613799	-7.3451647521926	176.236586478158	
2788000000	-6.64000224432996	175.680717537427	-5.40930731744945	29.8289784451096	-5.40804392022059	29.9426914216286	-7.32703851688268	176.050572469435	
2788500000	-6.64279833392634	175.762194027816	-5.42599731337963	29.8822634030618	-5.40840989607072	30.0620271961873	-7.3631788568943	176.147093848387	
2789000000	-6.66782828295707	175.949948464756	-5.41814940729634	29.8992496630705	-5.39006903060737	29.9906500226273	-7.34901097955006	176.221525180485	
2789500000	-6.65319761582384	176.160440312888	-5.41287290969389	29.9216929959401	-5.41202193896239	29.8839455966189	-7.3405731076159	176.336564722487	
2790000000	-6.67814278628711	176.189437047121	-5.41089600463994	29.8502889859394	-5.41359396119983	29.920149039772	-7.34761666526911	176.170835531435	
2790500000	-6.67897234820016	176.185790603341	-5.40898953015164	29.7934335738727	-5.4055328266676	29.8403175130422	-7.34621569208341	176.09962184111	
2791000000	-6.67493904620238	176.647323459084	-5.38913820624949	29.9582972692059	-5.39847118381368	29.8397767580617	-7.35388544337162	176.350123111601	
2791500000	-6.675575724056	176.609626083706	-5.41481340111379	29.807423552418	-5.40694351681641	29.8588820907149	-7.34330680166602	176.052709516868	
2792000000	-6.67777128559662	176.784479926916	-5.4064229916354	29.671275740751	-5.40559418945337	29.7811395491834	-7.3457318731833	176.093970134872	
2792500000	-6.7161380407321	176.75311861416	-5.42259785321273	29.7507327427371	-5.39185357959065	29.8324769098741	-7.35475400241737	175.952546658566	
2793000000	-6.70609035575174	177.014996839762	-5.41852824593768	29.602157836857	-5.41080247252638	29.7709509103662	-7.3480579872332	176.00028855046	
2793500000	-6.69539136325061	177.204317825319	-5.40698379180511	29.642496439625	-5.40456789668547	29.6564351802779	-7.30639725260048	176.165846959653	
2794000000	-6.71050428925276	177.092790008631	-5.40481980989939	29.5752306162597	-5.39047292772937	29.553544679207	-7.31028245154847	175.938821116252	
2794500000	-6.72794879507481	177.25913607566	-5.36840093865971	29.542907269538	-5.40113724306458	29.5724379393849	-7.30304425668193	176.158837838846	
2795000000	-6.73504894230674	177.418386337399	-5.41790440186072	29.517332004975	-5.39708640934714	29.5719722930045	-7.30770479978288	176.064652511023	
2795500000	-6.74686981840486	177.6032834756	-5.41742699220316	29.4891080761235	-5.39917076175748	29.4858997652084	-7.31550085909731	176.071250421908	
2796000000	-6.74521577254524	177.524998749435	-5.40628068233954	29.4778685161559	-5.36835128977073	29.3800992605179	-7.30726894482548	176.072565785388	
2796500000	-6.77404912226205	177.734358432365	-5.39919331844064	29.5158922324807	-5.39065200095888	29.4938405387096	-7.3260222064021	176.385078313976	
2797000000	-6.80556559047961	177.828987283673	-5.43349675685485	29.3737916198021	-5.39097595048951	29.3874197509329	-7.30984793986902	176.040012835044	
2797500000	-6.78019540463717	177.83861351657	-5.39125461217076	29.3974364306024	-5.41060137224401	29.4981092257989	-7.31674413314116	176.256021793817	
2798000000	-6.80841077411092	177.888705291914	-5.38622415995352	29.1946748825772	-5.38092312329091	29.3344487224433	-7.29971062547071	176.141629569681	
2798500000	-6.81299389709494	178.125656686105	-5.39361089390787	29.2331921832414	-5.38377742977781	29.2930708652033	-7.28359898767648	176.045789373616	
2799000000	-6.8354444589857	178.298083736655	-5.40128629078174	29.204927707615	-5.38094323821277	29.2833189972225	-7.28690406762144	176.092654289989	
2799500000	-6.85948195428923	178.20719067476	-5.40233530495465	29.2083620215127	-5.38655201880725	29.3163964681501	-7.29015082285868	176.145954335845	
2800000000	-6.85364997425764	178.392363630094	-5.38962643522595	29.1181663877119	-5.38446581315357	29.1533371381169	-7.25322690398454	176.169484297043	
2800500000	-6.8548816764389	178.393588525673	-5.38858367548517	29.0738808765574	-5.39122405691993	29.0743582478427	-7.27589035370309	176.166631044041	
2801000000	-6.8716294335762	178.668558242679	-5.37918959460871	29.1090474078904	-5.3807398488674	29.1281610223379	-7.27455072071585	176.227954041482	
2801500000	-6.91489687031543	178.634525002842	-5.39797139640042	29.0742139941368	-5.38342058826733	29.1088710725945	-7.27234767651303	176.334306637279	
2802000000	-6.91367081404348	178.7305806364	-5.38867419049136	28.9996755738929	-5.37072933031107	29.0202969752239	-7.24929185427496	176.168303548155	
2802500000	-6.95826953291547	178.589840995771	-5.37929273593338	28.9467319821142	-5.360444696604	28.9552581514476	-7.24462631580227	176.204170109158	
2803000000	-6.9462301474993	178.615495409307	-5.37271489649556	28.8618729100081	-5.37775130784719	28.9225712011465	-7.22104868576919	176.320522879822	
2803500000	-6.97341904247647	178.650661620164	-5.37817550666631	28.8730674012012	-5.37927055326207	28.8716831418184	-7.23285954025786	176.314395143658	
2804000000	-6.97660235223619	178.715346591583	-5.37468271547137	28.7482225418236	-5.3625879342376	28.74893796089	-7.23794146282333	176.349634287111	
2804500000	-6.96874173761341	178.704139410007	-5.37746963211088	28.7449857842988	-5.36700914541254	28.7228373714407	-7.19714991082519	176.322785613991	
2805000000	-6.98924765151754	179.076728895798	-5.37768816646321	28.6826173753609	-5.34831911877161	28.7569876363816	-7.20141950901513	176.289048276879	
2805500000	-7.00554084807567	179.007234822132	-5.35199677647018	28.6853770582757	-5.36046648882175	28.649111733301	-7.16885531337668	176.496577692538	
2806000000	-7.0056481130991	178.834710110328	-5.36701043808295	28.495886691798	-5.35946606113807	28.5976169065662	-7.17393165375824	176.474897312281	
2806500000	-7.06849653426309	178.895978331734	-5.38579818596736	28.5089984003438	-5.37368659112723	28.5654572495092	-7.18328330508277	176.455048658653	
2807000000	-7.02925254042391	179.161208509025	-5.34471598531119	28.4190266265122	-5.35991472006275	28.4415611899358	-7.13586715381706	176.560974154702	
2807500000	-7.07667815214238	179.021944461972	-5.35140075244353	28.4109413095164	-5.35149356803535	28.4244958432883	-7.14349977734017	176.472926713806	
2808000000	-7.09463691813227	178.866398170515	-5.35142472083969	28.3306201289431	-5.37153028066415	28.3259366133393	-7.14000371352617	176.482153693025	
2808500000	-7.10983248373486	179.160739705084	-5.37325977685724	28.2460248051685	-5.36309088653765	28.3483389850115	-7.16225148626582	176.638822428394	
2809000000	-7.11652725504752	178.820600490329	-5.35861422079534	28.243433782133	-5.35072303525225	28.2676626254849	-7.11409489916873	176.597441303867	
2809500000	-7.14253371639801	178.921844668011	-5.35703171895978	28.1873825227999	-5.3549847995484	28.146208778895	-7.11621328182027	176.543296668164	
2810000000	-7.16778775253956	178.811817051807	-5.3683835212852	28.0771023923343	-5.36463261013248	28.1559660586616	-7.09262947931181	176.436784710178	
2810500000	-7.18569173506346	178.762446552774	-5.36246772158127	28.0511798435618	-5.37026485238266	27.9874172257724	-7.07120611006129	176.610796353702	
2811000000	-7.21123726921903	178.838724667621	-5.35077611214966	28.0851310992814	-5.35024978190365	28.0147241030946	-7.10480908760068	176.919278393373	
2811500000	-7.21160047474169	178.802623869156	-5.35295463330072	27.8501994604874	-5.35356026068659	27.8851740438676	-7.07974990350812	176.645325465266	
2812000000	-7.24789393959007	178.716392638128	-5.34831262511632	27.8564042595909	-5.34861265765032	27.9094519316112	-7.07005878506387	176.767062458589	
2812500000	-7.25204073847046	178.791492111629	-5.34936749487776	27.7793772570094	-5.35038079427439	27.7687982751944	-7.02600627173163	176.84542725988	
2813000000	-7.28870312846167	178.798422010296	-5.35121350302366	27.6863345340248	-5.34065161170452	27.7060973492201	-6.98888149003118	176.723637880001	
2813500000	-7.28248282817894	178.807138374763	-5.35624197273713	27.6007758182481	-5.3447531266088	27.6835640384053	-7.027919270432	176.888032369413	
2814000000	-7.309595204932	178.634542575315	-5.33560854085966	27.6178416981979	-5.34414526289316	27.5817198257089	-7.00377155345671	176.956909871057	
2814500000	-7.31627095251149	178.644733779031	-5.32833060965346	27.5292011110479	-5.33476721618938	27.4680220434646	-7.00708391730552	177.066949789346	
2815000000	-7.33926946958721	178.62110355075	-5.34042740855367	27.4220423637213	-5.3316097212953	27.484296351733	-6.97709027819433	176.828450384919	
2815500000	-7.3896855531712	178.49094098861	-5.35156825946319	27.351886557092	-5.34077980660271	27.4244296863395	-6.99480142201724	177.014813247687	
2816000000	-7.40095410009821	178.564852758663	-5.34546633743935	27.3074388008667	-5.3459652225793	27.331997364788	-6.99022647061814	176.921086337787	
2816500000	-7.3890446237798	178.249285103376	-5.34010769604259	27.1972935216302	-5.33184680790093	27.19857146925	-6.95925773226663	176.991217138998	
2817000000	-7.41093442846917	178.399251497019	-5.33476547747254	27.0594266588189	-5.34423636853729	27.0957426110751	-6.95697522765202	176.901075703988	
2817500000	-7.44033614289484	178.206849502352	-5.33179681683768	27.0871735700594	-5.32513513708881	27.095491876229	-6.93854908511587	177.177039080588	
2818000000	-7.46224088203284	178.155576183089	-5.32550944235264	27.0033073433207	-5.33659451182616	27.0196734909773	-6.94704991032463	176.962850301162	
2818500000	-7.50276644400956	178.374997137561	-5.33976724162377	27.0227444234026	-5.33687997261505	26.9883357379519	-6.91969989303201	177.168652613015	
2819000000	-7.46560165574724	177.671516556523	-5.3450068856326	26.6650499024979	-5.35113428161453	26.7347355014014	-6.90538712792474	176.97387431807	
2819500000	-7.52060966112781	178.062264770943	-5.34563646480702	26.7459334534056	-5.34434516520037	26.7716377715993	-6.88267228299981	177.113065202101	
2820000000	-7.51481911673651	177.808464693834	-5.33420567603328	26.6163721453984	-5.34238207594905	26.7098290754536	-6.87071131345663	176.962803593007	
2820500000	-7.53327953643654	177.66015102275	-5.33052775638608	26.5728565846313	-5.32536486149679	26.6183885954769	-6.87642796105446	177.290177536212	
2821000000	-7.55551616770407	177.546341886018	-5.34554040454136	26.4605697637444	-5.33025932153835	26.4127610655394	-6.83566083624862	177.017639451925	
2821500000	-7.5432451477225	177.418142230693	-5.32981595140482	26.3386083399862	-5.33774502425133	26.4362234187174	-6.82827716011291	177.043396478827	
2822000000	-7.58250386811823	177.540499251388	-5.34169561373455	26.249967276894	-5.33032721648614	26.3452154348433	-6.81802107299698	177.003156600929	
2822500000	-7.60681329516629	177.297717786558	-5.33726161187119	26.1719562658007	-5.33100699711112	26.2616839573857	-6.82072436724819	177.168468161035	
2823000000	-7.61091467588056	177.166786478618	-5.34236504182952	26.1492662588859	-5.34702829072946	26.1599838076394	-6.82297299891983	177.005814284572	
2823500000	-7.66705640655788	176.9007281428	-5.35549609147026	26.0752056576699	-5.33261720942782	26.1167783969719	-6.83388698981873	177.133351835472	
2824000000	-7.65466188394372	176.813571986825	-5.33848294900547	25.9618083970389	-5.34199159517833	25.9987547399464	-6.76883095656894	177.312958935175	
2824500000	-7.67587188490032	176.569626250229	-5.35089851707825	25.9096685438991	-5.33284022966681	25.9325390756774	-6.81262486641925	177.216231204844	
2825000000	-7.68496925093836	176.836195849641	-5.33453424592156	25.8619534677651	-5.33875763993265	25.8822640680879	-6.80140252948656	177.067469326593	
2825500000	-7.70219868309692	176.489137289073	-5.34641358321978	25.6631649941042	-5.34703544107227	25.6923299462492	-6.78552436916068	177.055921672643	
2826000000	-7.70066527035719	176.231591044664	-5.35060196715872	25.5638156203555	-5.35528808900921	25.6222342700613	-6.81084614746879	177.093182999251	
2826500000	-7.74978982171861	176.102457578456	-5.34862910688635	25.5334996631793	-5.34313895230941	25.5603063730496	-6.74601001312991	177.170509024377	
2827000000	-7.73779298694433	175.89981530617	-5.34965604119208	25.4654050440704	-5.3386380389393	25.4649708601784	-6.73058231232522	177.201472198697	
2827500000	-7.73615058009374	175.535535574174	-5.35682391554427	25.3413697896789	-5.34420155291113	25.4205180049577	-6.76883364026741	177.256465263767	
2828000000	-7.75570333671931	175.681489428197	-5.34859358391728	25.2283250358524	-5.34825713633999	25.3261997009535	-6.72594419433908	177.14785984038	
2828500000	-7.77181393827826	175.394011643659	-5.35250822521125	25.1404999268358	-5.36421263543463	25.3169767725755	-6.7468844952799	177.224114087364	
2829000000	-7.80061956823582	175.006169275916	-5.34843040749673	25.058639636702	-5.34714408890427	25.0411850450454	-6.72379330751082	177.05261862844	
2829500000	-7.80344288479422	175.022553906935	-5.34554649453597	24.9875355698347	-5.34195693352642	25.0417324804483	-6.67350935177389	177.07101849494	
2830000000	-7.82553191339046	174.968831492664	-5.35301251202773	24.9348974128311	-5.34675713927613	24.8988187730735	-6.68456247816576	176.931756259103	
2830500000	-7.83447537388874	174.860122026462	-5.36349571064006	24.8768950258059	-5.34906694287639	24.8175689099683	-6.68587474644681	176.974818913119	
2831000000	-7.82748853082018	174.37220960826	-5.36042089354071	24.727524439814	-5.36221733699227	24.7707133149966	-6.7067391941634	177.018302723948	
2831500000	-7.82145841978821	174.379718125026	-5.34539878780456	24.5947771543297	-5.35468699003931	24.6328872383185	-6.65142949394625	177.154835424942	
2832000000	-7.85039585925201	174.217234170641	-5.3745138058621	24.6053475042644	-5.35826904771597	24.5745398403984	-6.67824691087637	177.098044165057	
2832500000	-7.86354272123014	173.812451793204	-5.37266165314391	24.4281858191302	-5.35297090783223	24.4524753960736	-6.6518630409926	177.18512181186	
2833000000	-7.86246388870234	173.770531396825	-5.37754033712578	24.3607273806066	-5.35060844800779	24.4670178793107	-6.69105232543562	177.128457739478	
2833500000	-7.89050962787193	173.699489770837	-5.36199651156073	24.2715893599713	-5.3579795118272	24.3829302342516	-6.65364760111175	177.137430898328	
2834000000	-7.88796375651518	173.264584714099	-5.38454604427204	24.1423885148647	-5.36717102784004	24.156585959657	-6.62663524504294	176.835177591338	
2834500000	-7.91769059382728	173.313220758968	-5.39520876193035	24.0732819539186	-5.36378752576581	24.1073373582784	-6.61667067599111	176.759893040253	
2835000000	-7.895344043998	172.952215330814	-5.38308075660319	24.0733969966232	-5.36855087989267	23.9368438876397	-6.62109450344114	176.817755292353	
2835500000	-7.89988898112528	172.673843367593	-5.38289263685301	23.8582834196841	-5.38208753145846	24.0144189988706	-6.61932671734938	176.935686028847	
2836000000	-7.8683974005252	172.500820880089	-5.37561100272977	23.7379511751822	-5.38659138324413	23.8532561059594	-6.63354960324407	176.759304823496	
2836500000	-7.93109633828386	172.282655348138	-5.38530485396002	23.7583052287416	-5.3912370391939	23.6727201759342	-6.61496465870064	176.849842878101	
2837000000	-7.89457846188231	172.213077510901	-5.39119479191696	23.6434583166253	-5.40256214818982	23.6159658172045	-6.6266748576751	176.688752141231	
2837500000	-7.91247623545646	171.975005401451	-5.38263150856679	23.5966617475429	-5.38204327213822	23.480980086013	-6.61317284051122	176.827923792832	
2838000000	-7.90765449594608	171.508801023901	-5.39609422634658	23.4238936353344	-5.3913106810551	23.4371847122538	-6.59776147053831	176.820979233454	
2838500000	-7.88917544288515	171.557485807021	-5.39874555535976	23.2987888416833	-5.39472774305928	23.3739314493891	-6.58998820043857	176.714289034126	
2839000000	-7.9184482384165	171.399432032765	-5.40907787567429	23.295673321438	-5.3951391295121	23.2283203499266	-6.58469480359246	176.586784914879	
2839500000	-7.9106311467884	171.0058253693	-5.41814180246323	23.0775720333981	-5.3888320645749	23.0532653149091	-6.55753205532833	176.485710628592	
2840000000	-7.9485746626113	170.687431438375	-5.41934280652483	23.0403435999094	-5.40999176336818	23.0625252397358	-6.57674529581326	176.567623408796	
2840500000	-7.90438895046166	170.726746536502	-5.40452948983928	23.0218643451678	-5.41746088294453	23.0849673685504	-6.62171835384359	176.634136391007	
2841000000	-7.92900388599683	170.383005924328	-5.437051477613	22.8937126940787	-5.41309314122747	22.8552675704529	-6.57454989715089	176.443064655517	
2841500000	-7.94511138653434	170.412413004028	-5.44005310839189	22.8417991434866	-5.43462136588444	22.78797799777	-6.59189254476006	176.257385098101	
2842000000	-7.92128717019683	170.154829086026	-5.43285459793768	22.7571325871762	-5.42757815298757	22.7231985787443	-6.59539121587025	176.326201806226	
2842500000	-7.88314599332851	169.976530936024	-5.42966817589862	22.6099810458057	-5.4101463888235	22.662560421999	-6.54973796761829	176.417665574081	
2843000000	-7.89577096816558	169.581774097247	-5.44263806110994	22.4854395634889	-5.43203432891318	22.5219608254239	-6.56588094377638	176.243857770893	
2843500000	-7.90188439124692	169.478917869529	-5.43507118704394	22.456123494704	-5.43563270917666	22.452346548473	-6.58001945994408	176.098719667061	
2844000000	-7.91469846805843	169.265515179826	-5.45564250204979	22.4089302619705	-5.44766817099701	22.2987528457108	-6.57673084636405	176.017064520119	
2844500000	-7.90103900439337	169.037426442127	-5.45994095719608	22.2928281484633	-5.44170036100831	22.3213456805709	-6.55538692155708	176.039912540764	
2845000000	-7.89452966907694	168.541818763789	-5.4707966045829	22.1433768651285	-5.44894692185401	22.1629507889744	-6.59051785720723	176.025825266212	
2845500000	-7.86952721825478	168.811192022608	-5.47771945736606	22.0643812638039	-5.4436789025844	22.1205279673171	-6.56949813893245	176.002251071996	
2846000000	-7.8492524855539	168.824679889617	-5.46065975319662	22.0181469654483	-5.46262273691242	22.141677887117	-6.5815881117328	175.943121248407	
2846500000	-7.83910276476432	168.398290036868	-5.46854504554964	21.9438534803534	-5.4643847970637	21.9729855510207	-6.56908749346771	175.971097616216	
2847000000	-7.88072499705256	168.256695785912	-5.49411467373065	21.898843051151	-5.47004722498475	21.9046887157007	-6.57524007651158	175.701076943665	
2847500000	-7.81492893448624	167.902975516925	-5.47688087607824	21.7718906201443	-5.47839056891286	21.751715656162	-6.57030872269358	175.635667929622	
2848000000	-7.79259183199929	167.740968502746	-5.47203702426026	21.6241187997125	-5.4765155353699	21.6718370071282	-6.54971461132749	175.665310112358	
2848500000	-7.80293095220268	167.696177336753	-5.49217742194656	21.6001539769633	-5.49867314423117	21.5310546749159	-6.5755676529917	175.530593507027	
2849000000	-7.78403801645822	167.366154778995	-5.49949428292362	21.4611176740984	-5.50453515033053	21.362911021301	-6.55229580323486	175.421422562924	
2849500000	-7.74656727011465	167.181395236638	-5.50777828898648	21.2946479549362	-5.50865215120503	21.3053905420947	-6.56944436737943	175.322058478522	
2850000000	-7.74748674454436	167.264851799112	-5.49634909052591	21.356357772472	-5.49304640597726	21.2265488558482	-6.55983823057734	175.415671123314	
2850500000	-7.75687960448819	166.952233797955	-5.52011034519713	21.2461942506676	-5.50259859270603	21.2295300833091	-6.56871093857325	175.330112825768	
2851000000	-7.75360728036923	166.729090071136	-5.51600355023991	21.1731031863051	-5.51226774322464	21.1917272985158	-6.58307691609427	175.249824717795	
2851500000	-7.72843601674788	166.668268501559	-5.5250583757286	21.0856479913754	-5.52172483470508	21.069567727553	-6.57460309242065	175.333559683111	
2852000000	-7.67952617987325	166.541583243367	-5.52417502094731	20.9695406219255	-5.50851899197512	21.0601754620969	-6.54674752888058	175.239374300681	
2852500000	-7.68844597577582	166.326516051374	-5.5204256805897	20.950050141001	-5.52864098836756	20.921689293679	-6.55861974930021	175.152175738757	
2853000000	-7.64379948881847	166.1826783314	-5.51368390549746	20.8141107875755	-5.53027486883044	20.8053979588646	-6.55751308041544	175.003801380909	
2853500000	-7.66503097734915	166.132447480089	-5.54095504253648	20.7189104523575	-5.53166791775974	20.7576844354445	-6.57495561786304	175.085398393765	
2854000000	-7.61893521414979	165.944602396241	-5.53584789882081	20.6498322625392	-5.54432004861213	20.6896121675086	-6.54885058675008	174.829515843563	
2854500000	-7.62688734317893	165.945827076199	-5.5468799915877	20.5766950570991	-5.53969584331209	20.602037526773	-6.58510515881879	174.926819961098	
2855000000	-7.61316910111371	165.623896085474	-5.56990458125002	20.4705653566845	-5.54520992911624	20.4552201526224	-6.56025308274436	174.688227854999	
2855500000	-7.5905627717501	165.516770958685	-5.57859958717371	20.4042391485435	-5.5622158749178	20.3805104724043	-6.5901424296337	174.54824913368	
2856000000	-7.54687365338336	165.524952272029	-5.55703363955392	20.313918203189	-5.55937628866994	20.4164974427137	-6.58956748148595	174.673693928768	
2856500000	-7.55005496926231	165.246358086473	-5.57520748598707	20.2589746623493	-5.57058044203456	20.2806045024373	-6.57707981770298	174.453886207851	
2857000000	-7.51495743796547	165.27319261125	-5.57863104916562	20.2445350348407	-5.57075532455675	20.2404843223839	-6.58779597946576	174.532764843637	
2857500000	-7.48920845953291	165.285834052224	-5.57585396756997	20.1073126402072	-5.56923613141503	20.1886609935472	-6.58358593066353	174.366768364241	
2858000000	-7.497587937802	165.272398510175	-5.58680366157236	20.045121259112	-5.57354596725174	20.1564571713274	-6.57658612465681	174.324169968161	
2858500000	-7.45811212627031	164.666085480683	-5.60679421624367	19.9454132845314	-5.58715364432963	19.9979345935743	-6.58608868644647	174.064989078345	
2859000000	-7.44858518719584	164.777321332218	-5.60169261560845	19.9025368656493	-5.60043415299154	19.9398775845778	-6.60256953191576	174.06484021766	
2859500000	-7.42637470152246	164.931187867316	-5.6046646426854	19.8216526879	-5.59777475980252	19.8858456315398	-6.58715661374328	174.112090595237	
2860000000	-7.41227173574493	164.890084328023	-5.61030175475754	19.8246901844435	-5.60389803229552	19.7692463947717	-6.57742513010395	174.009533920478	
2860500000	-7.37931052399619	164.737906269222	-5.61927907568349	19.7143785060945	-5.62674217996073	19.7288735037989	-6.61055183088024	174.036128219422	
2861000000	-7.3310447145692	164.594652152224	-5.61526551927791	19.6211657828335	-5.60075572887697	19.6858851097845	-6.60721090949943	173.92143564129	
2861500000	-7.33900637675641	164.773539600846	-5.6261045503999	19.543693687853	-5.61496326145905	19.6912589743673	-6.62074136941785	173.906807860732	
2862000000	-7.31256005588614	164.61253887651	-5.62219592939073	19.4708466433174	-5.62462909035667	19.6036177441539	-6.59289601495752	173.838155152028	
2862500000	-7.27153583022087	164.514338215038	-5.63365541360455	19.4702270884541	-5.617467037107	19.4414269572036	-6.60633091113265	173.872815537496	
2863000000	-7.26464832151418	164.501533981299	-5.63608795902289	19.3552263570487	-5.63522034169309	19.5049008495138	-6.60047767224423	173.729425274036	
2863500000	-7.25841270641732	164.627999103175	-5.64475346565587	19.4032218264696	-5.64484063212167	19.4688223505565	-6.64370907048494	173.754034919726	
2864000000	-7.22907501990013	164.496184420424	-5.65544486374565	19.3349506261484	-5.65103126363082	19.2872350389185	-6.64550722198782	173.502632149307	
2864500000	-7.19964763920897	164.493558230122	-5.66025697939156	19.2230229327838	-5.65537702175072	19.2689149739778	-6.61711806535999	173.513090654671	
2865000000	-7.20299749811679	164.385003810026	-5.65500436709308	19.2099910123236	-5.64529363873855	19.182491961404	-6.6284157025754	173.552359719293	
2865500000	-7.15984667076884	164.439840747174	-5.66170482601121	19.1264345878409	-5.67139396858509	19.1154521971123	-6.63581281569792	173.2398171097	
2866000000	-7.13545315285127	164.480771518097	-5.67921920389621	19.0916988346489	-5.65934455981258	19.1685824779033	-6.64671192199605	173.352899696003	
2866500000	-7.07681495345244	164.4025278684	-5.65936572093091	18.9909500200345	-5.66881366861747	19.0016331436379	-6.64170008304981	173.319666435126	
2867000000	-7.09682936068638	164.37023440106	-5.67949952170917	18.9897403291614	-5.67996130032324	18.9893179998608	-6.64629664890669	173.147869982169	
2867500000	-7.07383843499542	164.46478127788	-5.69267685463134	18.8886589905213	-5.67702455052322	18.8784095850126	-6.63464969872528	173.167567839416	
2868000000	-7.03654021345842	164.438733871381	-5.68591823259357	18.8203733445516	-5.68046785668851	18.7912090452179	-6.63237679333677	173.16549702081	
2868500000	-7.01169860437431	164.438461323778	-5.69265886575139	18.8152776323452	-5.6744525133711	18.8252725093588	-6.64396587432737	173.165049988784	
2869000000	-6.98370420579765	164.545412553264	-5.6954895756801	18.7740175583039	-5.68729850448706	18.814284656956	-6.6708322226686	173.117547457609	
2869500000	-6.96054111920462	164.585894008526	-5.70154402504036	18.7074212207496	-5.67006104028966	18.7944526237432	-6.65140378855779	173.089741786587	
2870000000	-6.93412393857611	164.649837242273	-5.68299638379176	18.635590095294	-5.69833135024055	18.6694469443265	-6.66828685872613	173.038329210131	
2870500000	-6.91363991334761	164.612635049554	-5.70482053926732	18.6521221347965	-5.71329462658197	18.7335198425424	-6.64927702081662	173.032978577251	
2871000000	-6.89330496339965	164.651542978905	-5.70199212395503	18.5304403956076	-5.70231390227235	18.6161003413652	-6.65597507101678	172.856574494305	
2871500000	-6.8736773248062	164.694265182952	-5.71557607089806	18.4760025238412	-5.71308840800452	18.4791541980817	-6.66460655331739	172.9068484867	
2872000000	-6.84841331287033	164.590083606139	-5.71977445426704	18.4667011466337	-5.7059467583899	18.4641834669214	-6.67197531555576	172.712236708097	
2872500000	-6.81982273116982	164.995142218242	-5.72421630394088	18.4094233916214	-5.71285879305878	18.4762780343571	-6.65980131264597	172.825997277767	
2873000000	-6.82059552200262	164.895182995708	-5.72943798298802	18.3883494893244	-5.72378397945282	18.5153799383872	-6.69604317277365	172.800174672118	
2873500000	-6.78447842707361	164.996856200281	-5.70276388097844	18.4041875918992	-5.73755255864574	18.360637906278	-6.64539725120023	172.784613776161	
2874000000	-6.77159755749335	165.008395528793	-5.72165433553237	18.2666238199462	-5.7221472015822	18.3431575446188	-6.6714782831841	172.745998868664	
2874500000	-6.76846609079476	165.376562378872	-5.73186593188252	18.3170132611602	-5.72574029834213	18.3431284074138	-6.69851724381703	172.710879691147	
2875000000	-6.77166981387669	165.354834001529	-5.72963218202135	18.3119419961042	-5.72880708729648	18.2972647153958	-6.72260403484538	172.782577669983	
2875500000	-6.71203334695714	165.410980091029	-5.72126052770117	18.1986434003143	-5.730946128032	18.2568632633625	-6.67967994856098	172.73692110391	
2876000000	-6.69616608236705	165.486747852025	-5.74199003810772	18.2269254531977	-5.73951222269892	18.1333525817892	-6.70095057387142	172.613470882529	
2876500000	-6.66286173719549	165.549725711039	-5.73498968084848	18.1226455326954	-5.74752229877329	18.0870352645351	-6.68590536359523	172.661236819634	
2877000000	-6.63810787855295	165.68595165325	-5.74180883956242	18.0307021386579	-5.72919680935223	18.0159848273454	-6.67663362539827	172.427650528668	
2877500000	-6.6318600251719	165.799877248244	-5.74120242318667	18.1506985726143	-5.75056058924536	18.0953960528409	-6.71397098205052	172.578248541716	
2878000000	-6.60182973720402	165.887071717572	-5.73884183759677	18.0117767501333	-5.72976812332007	18.0478936660695	-6.67669695063327	172.520424593397	
2878500000	-6.61119225784745	165.861786583735	-5.7633419597152	17.9684708388656	-5.75755135334536	18.0628478222231	-6.71951800215286	172.478997354525	
2879000000	-6.56529214137205	166.034154116781	-5.76096259293125	17.901819558859	-5.74496800104967	18.0388213331306	-6.70780155308645	172.531226935104	
2879500000	-6.57161729624804	165.979240773954	-5.74691647723429	17.9669897235806	-5.77156963790557	17.9293526511482	-6.73929398335135	172.425210499389	
2880000000	-6.55368372136776	166.375646609687	-5.76701796550078	17.9745689174994	-5.73657457400497	17.883678774591	-6.7226285444422	172.488578811027	
2880500000	-6.53854014009191	166.489092115407	-5.75190334403427	17.8911060844345	-5.73686968840335	17.8771886310915	-6.70938628013055	172.506296476347	
2881000000	-6.51141778425583	166.541285317201	-5.74587083198987	17.7084645072394	-5.76399870840545	17.8662792560002	-6.72404019635108	172.375896480508	
2881500000	-6.50667049709822	166.650025730307	-5.77768362646344	17.8739373532167	-5.77285077777339	17.9405123643882	-6.72734845544181	172.463525042899	
2882000000	-6.48592010506209	166.741865281307	-5.77424990197725	17.78188467778	-5.75044961000156	17.8092203843722	-6.71546529687814	172.557266106418	
2882500000	-6.47430029871526	166.73667219836	-5.77027607706395	17.6726905691812	-5.78342299747513	17.9143885492054	-6.7366011031828	172.370527680996	
2883000000	-6.42909993400555	166.91104393039	-5.76130042558404	17.5722042517132	-5.75747037522963	17.7244329279454	-6.71372614689592	172.335078243873	
2883500000	-6.41772852387438	167.187687491527	-5.76501468878839	17.5012529660864	-5.76922737988843	17.6993800320716	-6.72968557194133	172.35972789235	
2884000000	-6.41022603558497	167.399024307331	-5.76647240332278	17.6535797617388	-5.75585428203652	17.7300883895681	-6.70109024399146	172.56557256067	
2884500000	-6.38871385833182	167.47886232635	-5.79192926302685	17.5583210725072	-5.75746637426406	17.7428298022486	-6.72162875185284	172.410636515626	
2885000000	-6.39776426136921	167.712736681713	-5.77396261886385	17.6303354403831	-5.76629670450148	17.6663175834865	-6.72269806443474	172.478377435787	
2885500000	-6.38354364279116	167.775050384306	-5.77400638979156	17.5457363166062	-5.77116499124627	17.572445365429	-6.71161050152777	172.43688577453	
2886000000	-6.38574195547194	167.85177842844	-5.78326618136474	17.5514995213256	-5.77309337616965	17.5342748125274	-6.74958344327385	172.436007873154	
2886500000	-6.3396121295114	168.008915883121	-5.77984186631631	17.4830675564387	-5.79163385504341	17.4180599846964	-6.70634826387937	172.435481118259	
2887000000	-6.350042985206	168.1893014533	-5.77332364560565	17.4893813377348	-5.78248042273093	17.5783735153164	-6.72271179192798	172.656547062978	
2887500000	-6.32426568368814	168.396263141177	-5.79136437825154	17.4418348933135	-5.78026029091291	17.4915024242156	-6.74411266897789	172.425541738161	
2888000000	-6.31989940043273	168.421237319655	-5.79356328923759	17.4330762042316	-5.76656570549754	17.3936076993412	-6.740665712228	172.445134931439	
2888500000	-6.3039278499914	168.629764225364	-5.77168272922002	17.408479054468	-5.78873153315692	17.3834527637086	-6.72691159151278	172.611606037202	
2889000000	-6.29290100068665	168.862548715826	-5.76646713467732	17.4363609404746	-5.79003306980069	17.4129645673578	-6.73023213045083	172.551029160596	
2889500000	-6.30405286969272	169.094001477541	-5.77320685656526	17.3879464056988	-5.77884507038892	17.4335395840508	-6.71189664336491	172.623412578734	
2890000000	-6.26605359338104	169.172815877117	-5.76997625626269	17.2930642138414	-5.79115772969502	17.3088797725422	-6.71568617905881	172.618135645751	
2890500000	-6.27214257642625	169.357924907961	-5.77726520522926	17.2577298209185	-5.7760479414611	17.3359406106697	-6.73580466384156	172.646619767101	
2891000000	-6.27631812681146	169.433664474914	-5.78175631248089	17.2922181743925	-5.77036898296567	17.3833346489084	-6.71917504359837	172.68251191939	
2891500000	-6.2598789481832	169.738396959598	-5.7888103673567	17.2467663783255	-5.77168588888704	17.3222820073183	-6.72156646357725	172.575727227268	
2892000000	-6.24018986701064	169.674370631739	-5.78591450688336	17.1813475216926	-5.77182563509643	17.1835891016324	-6.7149089228829	172.659927322075	
2892500000	-6.24655605615358	169.926704029398	-5.78040626408312	17.1289176591818	-5.79093905443426	17.2280040673408	-6.71207122102603	172.678903767852	
2893000000	-6.22754900460196	170.181202101513	-5.7773220618506	17.2162849990179	-5.75126072384685	17.1421449681556	-6.68934048904462	172.792245526881	
2893500000	-6.24209294112098	170.261053566498	-5.78922589952002	17.1661402812358	-5.77488881422275	17.1910963686902	-6.72357836437611	172.898011662498	
2894000000	-6.24203249017469	170.444820357499	-5.77064541574288	17.1775099861639	-5.76186303003945	17.1860031078868	-6.72451995677409	173.009559777453	
2894500000	-6.21407702886392	170.61630231872	-5.76521454632438	17.0161249112291	-5.75506788995843	17.081991798318	-6.7002459316475	172.859766274574	
2895000000	-6.21613453542964	170.86322303815	-5.77779012426393	17.061750731347	-5.76530785050743	17.0634031067973	-6.7032669129114	173.023560201046	
2895500000	-6.2070571376513	171.005210463612	-5.74741768362021	16.9854650488013	-5.75496671224502	17.0134366238259	-6.69551181303369	173.04819508052	
2896000000	-6.20977310243677	171.274389537421	-5.76258627018334	17.0473693038107	-5.76306953404877	17.106780486112	-6.70229100329204	173.156651947115	
2896500000	-6.19901648962421	171.235629832541	-5.7756398782897	16.9526119257567	-5.78574155063382	17.042870394729	-6.70129087483219	173.067176431258	
2897000000	-6.1940614654029	171.38938254814	-5.76664954824151	16.8066361477765	-5.7748490965718	16.9161502740345	-6.70682496850464	172.97702506709	
2897500000	-6.18504631204935	171.646538995	-5.76539183997221	16.8692794152166	-5.75432741566608	17.0454415988629	-6.68831511251288	173.168455991298	
2898000000	-6.19962473002308	171.850149210718	-5.76730147845282	16.9594339946911	-5.76509239896345	16.9284419129619	-6.69170963015954	173.110748902109	
2898500000	-6.2041386245801	172.001003216753	-5.78217527990029	16.8522819087082	-5.7722137154387	16.9142759547303	-6.70388541438854	173.197348811107	
2899000000	-6.20857320025004	172.005848577918	-5.7711516616874	16.798957368568	-5.77726196084773	16.8480977801842	-6.70393405929273	173.195122843461	
2899500000	-6.21799135357229	172.162593148674	-5.76967371810039	16.7781591292088	-5.75699417482949	16.8613512377029	-6.68841552448853	173.240495495392	
2900000000	-6.20905835954205	172.466217965417	-5.77706822483309	16.6938442761933	-5.76767625878202	16.7617770155564	-6.70763801814697	173.427000051877	
2900500000	-6.1900457789591	172.425850564285	-5.75999290766254	16.651262584574	-5.75538818911242	16.6952683642814	-6.66488343563514	173.444816141123	
2901000000	-6.22774461870837	172.537667841898	-5.77647366316507	16.7005010759884	-5.76476949515295	16.7416444988675	-6.70894794719396	173.188226785035	
2901500000	-6.22569158228669	172.703932586992	-5.77376875862451	16.6974042865642	-5.7563825484284	16.6699353526988	-6.68007581034273	173.464423604282	
2902000000	-6.20677215550302	173.008616987508	-5.75675377690511	16.6339382479878	-5.7476136392123	16.6146072194623	-6.6644186716439	173.417322370195	
2902500000	-6.22805429140885	173.186912996991	-5.76106962250275	16.5879340290336	-5.75777570786815	16.5812645329235	-6.70038646658705	173.701795099412	
2903000000	-6.2312337906222	173.280060136036	-5.76074714853925	16.6013833600713	-5.75039556687126	16.6256853919067	-6.66552398847938	173.616821043525	
2903500000	-6.2392311825933	173.417481392584	-5.753407550228	16.6235455090148	-5.76396663134239	16.5195172315297	-6.69129536650623	173.715848036673	
2904000000	-6.23868862601213	173.620404814996	-5.74696113927537	16.4945327449102	-5.74624424330026	16.6077808587518	-6.65035072098233	173.841876742965	
2904500000	-6.22940274696346	173.842214905328	-5.75109539056275	16.4257405566171	-5.73032206635417	16.5255022461453	-6.66613491859316	173.733918381663	
2905000000	-6.26867826568526	173.903263216737	-5.74864683020343	16.3832464544778	-5.74101412146538	16.5036132511145	-6.66471953051162	173.840223832226	
2905500000	-6.26341753273696	173.894409983249	-5.75471961544245	16.373332852835	-5.75229870094861	16.3680462800213	-6.6890202009252	173.977718045368	
2906000000	-6.2611855908971	174.188534468365	-5.75379010519575	16.3640269999851	-5.75746747426928	16.3597472963124	-6.66157084256473	174.034871848458	
2906500000	-6.27325162451701	174.562002497826	-5.7452340046337	16.26566372615	-5.74602650837264	16.3028432645797	-6.66732168555375	173.960752669638	
2907000000	-6.28191690320685	174.241392101452	-5.74835763326491	16.1786965835325	-5.73982022047533	16.2582726358186	-6.63744311453322	174.025273855818	
2907500000	-6.30723063857482	174.458972248939	-5.75132265684881	16.1329231745111	-5.75288931414244	16.228346232458	-6.67307432307915	174.068486611489	
2908000000	-6.31895026365947	174.618261324835	-5.75202217848714	16.1327210732098	-5.74392223901403	16.1221761423425	-6.64206414529831	174.134602837791	
2908500000	-6.28630957413445	174.698151935065	-5.73095057551859	16.0786936856475	-5.73111781082144	16.1511230609408	-6.62163452268057	174.138231335521	
2909000000	-6.34866832772812	174.936084244088	-5.72734639487149	16.1828663425475	-5.72726365442474	16.1241522173354	-6.63817351765091	174.150004594605	
2909500000	-6.30943787976511	175.106719292271	-5.73646766655065	15.9871928799936	-5.71966095472124	16.0422957597068	-6.61403694466388	174.102797732591	
2910000000	-6.3156414556304	175.015640467171	-5.73401700537753	15.9681410983779	-5.72697965215001	16.0009675136431	-6.62388644698697	174.214891312993	
2910500000	-6.34074381190614	175.180809834047	-5.72403108449368	16.0175328896109	-5.73236068417574	15.9265951676852	-6.65482817929925	174.562797170812	
2911000000	-6.36122788538082	175.205157036506	-5.73513676168505	15.9176512203245	-5.72881184662432	15.8996913004208	-6.61957985532747	174.338196154122	
2911500000	-6.39828771128086	175.324119829684	-5.75187918571364	15.8514166973825	-5.72600192985507	15.833804777579	-6.62398365092902	174.322294859737	
2912000000	-6.42864641185837	175.585671715792	-5.73172522592718	15.8536848878386	-5.71924313450169	15.8203144315933	-6.63271510570588	174.496992036357	
2912500000	-6.41094238432576	175.431301263059	-5.7247389171072	15.7334077153765	-5.7137348599718	15.8886454406705	-6.63505294967525	174.564322289434	
2913000000	-6.41596457329903	175.640012046812	-5.72928619449345	15.8139992409437	-5.73045705039358	15.73984094623	-6.61123401209261	174.445645617487	
2913500000	-6.44060573692415	175.577568597221	-5.72673025909642	15.6217097716403	-5.7230027527773	15.7171225782008	-6.62631666731178	174.500423221036	
2914000000	-6.43869457031713	175.857619003833	-5.71730598128257	15.6211435347223	-5.71594988836345	15.6503289522239	-6.60703100797168	174.66916111089	
2914500000	-6.45516234791195	175.932025338855	-5.71730888858715	15.6335813145123	-5.70925018886216	15.5945245527894	-6.61240660492126	174.639321472605	
2915000000	-6.48065143065553	175.789937387824	-5.72274128069621	15.43270978629	-5.70795148653901	15.4897306179777	-6.57255878576829	174.544211768685	
2915500000	-6.51303059936639	175.950470919761	-5.73187126345443	15.4272645713741	-5.71567624259813	15.3779566968573	-6.60656571584158	174.444527101228	
2916000000	-6.49886357870361	176.154163158188	-5.7060558253044	15.3950678933255	-5.69886070788835	15.3457144623587	-6.588181911279	174.677875262362	
2916500000	-6.53795296134923	176.253902291486	-5.71507066751158	15.3078442734604	-5.71401139901617	15.3911883819884	-6.5975493397936	174.704472160215	
2917000000	-6.54939476428257	176.144067115845	-5.70914084109744	15.3054246009268	-5.71179197922132	15.3394670938726	-6.62068588700923	174.689017255511	
2917500000	-6.59972640160371	176.351445117294	-5.71074022245895	15.2768970205968	-5.70493438536214	15.3489663529733	-6.62835916670115	175.032503884782	
2918000000	-6.59385287339212	176.187377735468	-5.70400759188339	15.0980916983196	-5.72693110008021	15.1426596294498	-6.58851942949168	174.77301751841	
2918500000	-6.61931406800104	176.111595942436	-5.72679906127868	14.9859325991509	-5.71654195511513	14.9874225354619	-6.58393029354129	174.564672365511	
2919000000	-6.60983236097472	176.312890036495	-5.69550491369903	15.0107288300348	-5.7151692084743	15.1057628671607	-6.58303646061693	174.916430230561	
2919500000	-6.67714987122607	176.438533619818	-5.7019414200325	15.0555960144551	-5.7047614088542	15.0301099315992	-6.55072122436843	174.933910924682	
2920000000	-6.64631665551049	176.340457197587	-5.71263977789111	14.9517066138337	-5.71363579927829	14.9114447612462	-6.59315990829745	174.822148171132	
2920500000	-6.6928854963842	176.464977099623	-5.70326438960931	14.8684803794807	-5.70320883426564	14.8413949521778	-6.58477932348437	175.005273813279	
2921000000	-6.73048202270471	176.235669515326	-5.70526947729574	14.7521707665964	-5.70598509402808	14.6744812434194	-6.58252106426761	174.875061947077	
2921500000	-6.72421178369821	176.549888750403	-5.68632978261507	14.7309113419105	-5.70542292227862	14.7947599640428	-6.60748954567798	174.932187873582	
2922000000	-6.75265400774766	176.364552512481	-5.71395760736116	14.6526796189987	-5.69617201380458	14.6753551706115	-6.57430201038833	174.978736103051	
2922500000	-6.78140066972462	176.387989077647	-5.71139310016394	14.5114686584233	-5.70226757761005	14.5505218399428	-6.59325039188095	174.852196630142	
2923000000	-6.82858806072208	176.467787354032	-5.71007916832344	14.5912748611438	-5.70547970320171	14.6653548679293	-6.57520418518126	175.237531362414	
2923500000	-6.83184558868094	176.090387177897	-5.70762485890662	14.4183716459076	-5.71513196237719	14.4197491513392	-6.58755444117115	174.90273941337	
2924000000	-6.86290135572958	176.478817872294	-5.72071545535957	14.3615908228383	-5.70408720319201	14.4232102580421	-6.61588619209536	174.942900096032	
2924500000	-6.85892289175266	176.479987039885	-5.7162257308673	14.4123696276935	-5.70048319583771	14.2370411002378	-6.57950139697528	174.795232119381	
2925000000	-6.8640940187504	176.266980660335	-5.70462997074307	14.2670700454558	-5.7168265134285	14.411239513116	-6.60822447797972	174.81587266312	
2925500000	-6.89524541540676	176.335617179154	-5.70027230141186	14.2104007754001	-5.71463033246979	14.2672551660367	-6.57579175205246	174.949141799676	
2926000000	-6.92255330934105	176.03386578285	-5.69233797322164	13.9829362783628	-5.70871405929194	14.1192536290669	-6.58644399136272	174.846054544466	
2926500000	-6.9790732810592	176.181589603989	-5.72284040028241	13.9858893979962	-5.70221917884015	14.0298224316919	-6.56384557649511	174.784601910086	
2927000000	-6.9900081263064	176.224582537808	-5.70830621741421	14.0353680364596	-5.70099844408667	14.0700606832279	-6.57175544253978	174.977845658152	
2927500000	-7.00644040971785	176.009404507965	-5.70515704684036	13.9092533968684	-5.70477215278687	13.916356788858	-6.56924369000371	174.928995078996	
2928000000	-7.03360980943359	176.083251361159	-5.70174881598242	13.8827657802416	-5.70046535526339	13.9087227355652	-6.57773078214066	174.893542675326	
2928500000	-7.04752577642371	175.938374053691	-5.69351205880356	13.714675543573	-5.71786426373352	13.8721985694934	-6.5644365142259	174.927291000898	
2929000000	-7.1039462177006	175.965203631668	-5.72814443369889	13.6864312197141	-5.7159326871005	13.7639260238981	-6.57566706263827	174.910877667073	
2929500000	-7.11507005382365	175.870177461553	-5.71191358702139	13.6708290589258	-5.69067912014046	13.5606559753029	-6.53885682878741	174.806763317285	
2930000000	-7.13164839055774	175.739892227932	-5.72755709373875	13.5924355492321	-5.69534766435867	13.537364969346	-6.59074338311356	174.753669276633	
2930500000	-7.10390476632033	175.616768877533	-5.69103432383626	13.4137684657163	-5.699117645227	13.484887023098	-6.52458533029783	174.802995670457	
2931000000	-7.17414345720428	175.531645909713	-5.72260037322436	13.3836077618108	-5.69604441286455	13.273513220201	-6.52530106872986	174.806966245698	
2931500000	-7.20565055088449	175.624533555729	-5.71835068141399	13.2867364401895	-5.72794558281176	13.367380423764	-6.54329345601741	174.63689838512	
2932000000	-7.23396524155336	175.413546411642	-5.71652134885597	13.1876961682913	-5.71457481026148	13.3095987002361	-6.56239395557839	174.554366515849	
2932500000	-7.24111561524766	175.169655328327	-5.72434384482181	13.0769627281293	-5.70248389150464	13.0458542393898	-6.53274218752168	174.459320351853	
2933000000	-7.27391996917545	175.008680111767	-5.71639847333253	13.0380841593325	-5.72420617491354	13.0757592605152	-6.5710222490079	174.604533773148	
2933500000	-7.3041660070711	175.081617019915	-5.71821781793299	12.9985677014031	-5.72739893039899	12.9323414795355	-6.53005903455304	174.291070655373	
2934000000	-7.29638507402521	174.747005613706	-5.71072725062443	12.9002350749723	-5.7066122111738	12.7898815452391	-6.51042935561511	174.37090592109	
2934500000	-7.31981472344513	174.70451726359	-5.71342908699887	12.8675392069261	-5.7387498822112	12.7933288334664	-6.55511274913656	174.457269852946	
2935000000	-7.38836688383795	174.739672865111	-5.73009780533621	12.8378073117397	-5.73622984828811	12.6430279546158	-6.55211917440295	174.19595720708	
2935500000	-7.36593345986484	174.358852535881	-5.73693572534548	12.614542896594	-5.72267614745444	12.5905975017279	-6.52494671329253	174.303892189263	
2936000000	-7.44103735943108	174.464294264339	-5.73525363845475	12.6180921032053	-5.7369651073535	12.5565067316925	-6.54748707298794	174.163292035177	
2936500000	-7.4561317900769	174.13999746398	-5.74918820878695	12.4413279725645	-5.73993571763702	12.4208890023456	-6.55513863188698	174.13580650259	
2937000000	-7.43949822482614	173.663765227706	-5.73177310776226	12.300056332804	-5.73593839960073	12.3362408239253	-6.52187809457734	174.041787761277	
2937500000	-7.46864817639846	173.744600199761	-5.7361812690638	12.2678363204257	-5.72182563032642	12.2402451743541	-6.51312363434348	174.099713755836	
2938000000	-7.46716835257481	173.541240251244	-5.73103932734198	12.1325140561288	-5.73282022327959	12.1514606527546	-6.48736322191476	173.966670047374	
2938500000	-7.51165897223568	173.338370289398	-5.73457564694461	12.0735139989754	-5.73380890748171	12.0496648285237	-6.50943439751056	173.996502514398	
2939000000	-7.52535898503172	173.00237814971	-5.73378100373597	11.9271712315775	-5.76186470242704	12.0070341915738	-6.54076349255275	173.706450383944	
2939500000	-7.57593022286064	173.027149114003	-5.76414044506218	11.9161406699456	-5.74738790072274	11.9881407562142	-6.54630951102341	173.758846576284	
2940000000	-7.58500585158714	172.874446812283	-5.75045211973205	11.8704610547834	-5.75439098012089	11.9475420147624	-6.52336165575248	173.715454343585	
2940500000	-7.61299097197056	172.594171901261	-5.76806139974001	11.77039455281	-5.76474997735465	11.6914904413762	-6.52247028496094	173.567457292173	
2941000000	-7.60712882616746	172.418664383309	-5.75563402996911	11.5990544380516	-5.74163472642769	11.6924307307104	-6.48759215422699	173.604591729434	
2941500000	-7.61672904677318	172.166851998923	-5.77523050509399	11.5308477315975	-5.7648791458217	11.5765183315843	-6.51735289447816	173.431934304155	
2942000000	-7.64456996431158	172.031924623823	-5.76586942250276	11.5402654061179	-5.75086955220143	11.4466490827995	-6.51679521277104	173.3814811228	
2942500000	-7.66306733432891	171.890221087419	-5.76716681999434	11.369331680025	-5.76820288618045	11.3671814760768	-6.49748816270531	173.254695488657	
2943000000	-7.67552056171998	171.616419166571	-5.77198310647314	11.3022708009488	-5.7665514154056	11.2212285154773	-6.47807669304384	173.11887658779	
2943500000	-7.71712693770701	171.125619124171	-5.79095901115044	11.2108278012907	-5.77204904326269	11.1934338686243	-6.50982899076408	173.067127649514	
2944000000	-7.70734933126822	171.131090608701	-5.78123256377075	11.1413888526079	-5.77404836321975	11.0940318680158	-6.50413445413295	173.244740947298	
2944500000	-7.73335028664262	171.026753761495	-5.78817552597822	11.0563868901145	-5.78966382721428	11.1304586004099	-6.54936230743436	173.177428900093	
2945000000	-7.7408985963353	170.611999228567	-5.79787707714521	10.9243564793913	-5.7850670645577	10.9799808757569	-6.52620050213071	172.993883725814	
2945500000	-7.7133852271484	170.200304605783	-5.80227774046209	10.7707213027168	-5.78756304289915	10.8541847151866	-6.51889358539049	172.761320061987	
2946000000	-7.73651872397453	170.398734229806	-5.78217416689502	10.7973223492582	-5.79554791831352	10.7898791377357	-6.50115849755976	172.812671068426	
2946500000	-7.78052182754987	169.709429134224	-5.81086208550703	10.609667825856	-5.78580668432333	10.6752724288377	-6.49376825464646	172.538608429587	
2947000000	-7.74082379095145	169.685270181539	-5.80903634470896	10.5447172808481	-5.80162405740532	10.5768252440488	-6.51116237465364	172.445139357517	
2947500000	-7.76581970676125	169.313565691118	-5.81241684061733	10.4373734641705	-5.81140296794907	10.4785412747504	-6.48804682425624	172.358825826634	
2948000000	-7.79466322861122	169.353506036459	-5.80789569358755	10.4791860175842	-5.80761549233658	10.4456536625894	-6.48494852372418	172.481732927401	
2948500000	-7.78756386012295	168.891522416087	-5.8187921536188	10.2555749852433	-5.80957847735744	10.2864790356667	-6.48492872017459	172.449332060456	
2949000000	-7.77491722344529	168.692851112222	-5.81658541218018	10.2141388625806	-5.81256095536076	10.1752169588466	-6.4668084347091	172.32985005786	
2949500000	-7.80542655726272	168.481975934295	-5.83614766634206	10.0875341774023	-5.82625705828335	10.1029071630129	-6.4800815370106	172.124686182782	
2950000000	-7.78604156790992	167.93070263013	-5.84617324085214	10.0206098700312	-5.83221711847987	10.0892986162953	-6.49644345776234	172.017583231498	
2950500000	-7.76831874629768	167.80541408439	-5.8430726718146	9.86952045186527	-5.84494601856956	9.90417873012458	-6.47989275058522	171.92112550244	
2951000000	-7.76219443537095	167.569638672976	-5.84774734159105	9.82291658763248	-5.84680094157632	9.74583183628576	-6.46800543354336	171.67745532027	
2951500000	-7.78941269956576	167.413494108039	-5.848284945099	9.72868472114137	-5.83822101737594	9.63987996060271	-6.45830667653159	171.652392538872	
2952000000	-7.75698334608626	167.107234400069	-5.85623774625848	9.68724783676717	-5.84713505793198	9.65650264067615	-6.47414987940774	171.645613033741	
2952500000	-7.76792387869903	166.950028975195	-5.85697472738907	9.5613987870554	-5.8681484486353	9.64718191524539	-6.48157055143596	171.593308861969	
2953000000	-7.77174817428193	166.668981795958	-5.85714302587797	9.46500029001441	-5.87764365525763	9.44093372735158	-6.46542489473011	171.41319022496	
2953500000	-7.75876046455786	166.348091559142	-5.87255711930237	9.32265594283053	-5.85944018932204	9.38828864214584	-6.45896958170802	171.497846727975	
2954000000	-7.73542224155292	166.220433698869	-5.8712270465402	9.24869101525809	-5.8795822377255	9.28215482094421	-6.46674260430832	171.12401738639	
2954500000	-7.75122347765844	166.215380569829	-5.87809775605892	9.20309418078815	-5.86490675611243	9.20433461005228	-6.46806550545825	171.132973390336	
2955000000	-7.73190099582942	165.685685538888	-5.89168480162191	9.12732574628523	-5.88188926035371	9.08532460610274	-6.46916089137738	170.968537462511	
2955500000	-7.74878489503487	165.646125206312	-5.88972587969856	9.06569192117821	-5.88571800201575	9.06602727489117	-6.45287522743799	171.060238099879	
2956000000	-7.73455336584111	165.508750905832	-5.90123650442094	9.06157811472874	-5.89988028248776	8.95144406592821	-6.46317765020992	170.974463214398	
2956500000	-7.70861877461536	165.208794501023	-5.89894074569653	8.81762411587411	-5.89456322581439	8.86937237422432	-6.43384961542143	170.697086225925	
2957000000	-7.68313664442268	164.964456945708	-5.90729162530381	8.83208942639672	-5.89098988560657	8.86623387932314	-6.41618538731286	170.819647977985	
2957500000	-7.69709587760422	164.780285171829	-5.91409362658212	8.75099762080136	-5.91204415784147	8.72560109778959	-6.47041058438416	170.721842919749	
2958000000	-7.66492704986235	164.612127745094	-5.91300382791657	8.70081135042166	-5.90158500639244	8.6873482709518	-6.4364892744369	170.634735112419	
2958500000	-7.6613108419546	164.286366635016	-5.9380439455463	8.59956030487588	-5.91761091978797	8.53657428384336	-6.43642593781313	170.571411192453	
2959000000	-7.61522720404449	164.201004485994	-5.91387980318855	8.52958259314232	-5.90412439496446	8.61739370243761	-6.42922188786768	170.550172289504	
2959500000	-7.60127010566307	163.770941248874	-5.94419360435536	8.37916599908425	-5.92333937809993	8.35061435842567	-6.41237256104202	170.260793618042	
2960000000	-7.63314852173097	163.601643001086	-5.92866144745086	8.30236464156946	-5.93684668642767	8.31082369973156	-6.42627549038123	170.259727839133	
2960500000	-7.59540935193293	163.462770565165	-5.94962357940351	8.29441733282643	-5.92568237641723	8.1943151680157	-6.41548688945155	170.216575668213	
2961000000	-7.56656196746584	163.413660910077	-5.93268891391297	8.19083790101049	-5.93972351901567	8.18006072913993	-6.40938628891183	170.269726039746	
2961500000	-7.54115977184092	163.148985314358	-5.95485827135921	8.05176556729619	-5.95343269136712	7.98553981169568	-6.39507607046287	169.895675427945	
2962000000	-7.5305211771566	162.903454223361	-5.95301528607184	8.08812741139215	-5.94140356014201	7.90332303269896	-6.41283950916765	169.934172928858	
2962500000	-7.51672227531964	162.995242140751	-5.96580433893131	8.002641769862	-5.96733045797414	7.86702548541423	-6.3872673505825	169.865726166622	
2963000000	-7.50008153106009	162.656545117364	-5.97015813471922	7.8882722502852	-5.95982070972557	7.88575067219192	-6.40139680667783	169.764536725562	
2963500000	-7.46534847797993	162.473699556502	-5.97123273554877	7.80374238681275	-5.96139131839804	7.77428492915837	-6.39226936112208	169.714477723609	
2964000000	-7.45302715010371	162.416005852798	-6.00059510605978	7.83897223724247	-5.96217947293356	7.70731828058791	-6.39915193203966	169.671568456308	
2964500000	-7.45038755025835	162.347642523184	-5.98549509479943	7.61286142949327	-5.97561760910352	7.75566673324937	-6.39203643159824	169.808437895247	
2965000000	-7.42832033717804	161.989832454448	-5.98352254708234	7.55326115627402	-5.99805381991081	7.61874253223268	-6.39219029695037	169.53710240114	
2965500000	-7.38098025108043	162.16322957732	-5.99447725830043	7.52548921038049	-5.98637162452349	7.52160063790868	-6.35830083760078	169.503706078298	
2966000000	-7.33576294658268	162.037872042244	-5.98526465406974	7.40574945182014	-5.99058945063817	7.43137765698406	-6.36700113469528	169.560716033604	
2966500000	-7.3387076431047	161.872732801354	-6.00920271533313	7.38046946278534	-6.00372166646786	7.37491554876085	-6.37776844381822	169.385110441805	
2967000000	-7.30465376558296	161.608889921054	-6.0006607720601	7.31876713351562	-6.01025634647293	7.20032084103029	-6.36450836104747	169.43645652284	
2967500000	-7.30690701275702	161.627022156447	-6.01724972167272	7.32415625867074	-6.01638625080905	7.18841018956949	-6.38438827084315	169.315357005995	
2968000000	-7.27023448548174	161.360260177927	-6.01873840036068	7.1675229267192	-5.98752270695578	7.14453081259481	-6.34090485042489	169.27623918465	
2968500000	-7.23002761866929	161.459378321703	-6.0274439577485	7.0895656537722	-6.00723648315076	7.13571275291863	-6.3360322481721	169.176191487652	
2969000000	-7.20066814605209	161.237942015665	-6.01818773469466	7.02731973795074	-6.01750293027525	7.0000796412475	-6.31180957284315	169.092668584089	
2969500000	-7.18480688141103	161.183045865459	-6.03368053820616	6.96874357775561	-6.02094611725231	6.98694377998953	-6.34647995143493	169.069507965106	
2970000000	-7.14106971889474	161.210970009962	-6.03182418168954	6.84319708890226	-6.0282680294183	6.88155753858875	-6.32975317939704	168.939831673768	
2970500000	-7.10786421766898	161.043365041361	-6.06171116752325	6.8259943644824	-6.03967054566887	6.78078371452863	-6.34045761313715	168.855807974856	
2971000000	-7.09069168006119	161.07018500061	-6.04283327385883	6.81631657237339	-6.03377815695925	6.71416691956731	-6.33824084012933	168.993218855938	
2971500000	-7.08524876375423	160.89033601834	-6.04340274860185	6.78222442950273	-6.03833517218641	6.76909767159227	-6.31315699066591	168.856419531214	
2972000000	-7.01044427500552	160.815293620299	-6.04741387062864	6.55843093410246	-6.02313943769284	6.52639128613702	-6.32153584825257	168.848449869574	
2972500000	-6.99635987809729	160.842540149149	-6.05132300179172	6.54794111286514	-6.04354531618763	6.61675489129188	-6.31444002507672	168.839224065381	
2973000000	-6.97416408771341	160.691045183844	-6.03041078746895	6.51794152898729	-6.05694793192401	6.4128185570085	-6.29316266024153	168.796465597623	
2973500000	-6.95312910967162	160.76755025303	-6.04593550604163	6.41810587705822	-6.06588158726677	6.58362852285767	-6.28798580480909	168.817355066513	
2974000000	-6.89536140033512	160.795747557913	-6.07098344482652	6.45026374475913	-6.06419013555671	6.39798261667935	-6.29697057147098	168.735353346723	
2974500000	-6.89969580890966	160.748767499766	-6.06370094876372	6.32560150261499	-6.06866171047475	6.30631611866644	-6.28862439446046	168.780506018768	
2975000000	-6.85782168011972	160.834255114762	-6.08439822690482	6.26219771903366	-6.06092497851092	6.29740178310614	-6.28233284132404	168.799382096888	
2975500000	-6.83993837364392	160.689402587281	-6.10272196451458	6.22853278719183	-6.07078172915382	6.35178839518622	-6.30335233866531	168.63328541539	
2976000000	-6.80389759195262	160.834484145671	-6.06593231953129	6.32511264269224	-6.07262191076075	6.14838029190517	-6.26963842835646	168.63312190466	
2976500000	-6.78669689496327	160.871236914666	-6.07513977631717	6.11582866337941	-6.07167027876704	6.13877884094712	-6.28664559134889	168.663567338771	
2977000000	-6.75860965792732	160.831358570642	-6.08415513540587	6.20502846160481	-6.0890455298872	6.1474455325483	-6.27455921032157	168.811383678163	
2977500000	-6.72211312083799	160.914233064608	-6.08188999699026	6.06529355109239	-6.07228388398393	6.07015183770513	-6.25677063432735	168.746625820003	
2978000000	-6.67054111746764	160.859294994077	-6.09082162715827	6.03656523222166	-6.06471106861164	5.91992998593099	-6.26419527993552	168.563997459245	
2978500000	-6.68162482886923	160.918248173596	-6.08787959205054	6.05236036857808	-6.08663006611448	5.9491361129061	-6.27528177490073	168.709072880214	
2979000000	-6.63607431648576	160.968103163432	-6.09222228951231	5.87389725938434	-6.08434139749084	5.81758669904753	-6.2426219649102	168.686086842703	
2979500000	-6.60746125512323	161.034384762608	-6.104788077764	5.84068585230217	-6.08966486797034	5.80393498157318	-6.23973541947989	168.479652206414	
2980000000	-6.58127837717278	161.014037103746	-6.10934226845925	5.82532072727903	-6.09418276785357	5.80551147037603	-6.24489634151844	168.74439058424	
2980500000	-6.5522983365326	161.080462740106	-6.09906803816417	5.80749354936632	-6.10731799626902	5.78482689427614	-6.22797163091301	168.79860830257	
2981000000	-6.56232576859676	161.1624827465	-6.10269028459321	5.86925138765778	-6.09740364443147	5.75325167673862	-6.23022046731601	168.790313522648	
2981500000	-6.51925671344922	161.222427724358	-6.11213882094552	5.82620091849929	-6.10429315548346	5.50745586289361	-6.25205297524552	168.737198309382	
2982000000	-6.4898528489346	161.361441098379	-6.10411432164869	5.5940815734909	-6.10828089551884	5.66068380936821	-6.22947351648624	168.842936893778	
2982500000	-6.43772023694506	161.502389232446	-6.09509405086407	5.69437027883639	-6.11242360237971	5.67154539150243	-6.2402874263081	168.737185718615	
2983000000	-6.45150600798062	161.56569072962	-6.11118829696004	5.53455043413621	-6.13304261043966	5.53250897543182	-6.22795082199931	168.858120837186	
2983500000	-6.40736145981729	161.624970520439	-6.12168657599624	5.5085262960239	-6.1253165649413	5.55668163781105	-6.21465011703992	168.802583127209	
2984000000	-6.37836531402395	161.753828176556	-6.13055971256993	5.43170996361826	-6.13141853944367	5.42082284974207	-6.20863390554186	168.866954242608	
2984500000	-6.35665676340729	161.849653806775	-6.1277255969327	5.41545787033446	-6.11627184832347	5.41879013768999	-6.20686718135716	168.933773192776	
2985000000	-6.34943243740556	161.983086714255	-6.15094713443789	5.51608142717218	-6.12418515392207	5.4611115269351	-6.22074603811458	168.93625269675	
2985500000	-6.31438142448117	162.046387451414	-6.13318903684185	5.34449229679583	-6.14354897497164	5.40834489608953	-6.19802549687179	168.738940914916	
2986000000	-6.29056538478621	162.080197925824	-6.12561375649455	5.39677467037941	-6.13086975713971	5.41041259112016	-6.19968709857211	168.807004999262	
2986500000	-6.26450280941246	162.215738894922	-6.13331853667544	5.31058308187785	-6.1255158211967	5.34789914518888	-6.2139724452985	168.95532797076	
2987000000	-6.24661211928277	162.258902114344	-6.13880358251564	5.27747617721922	-6.14626179704655	5.34570733139193	-6.20123773881889	169.138560350844	
2987500000	-6.21373211089027	162.491975460281	-6.13729670603865	5.19113439337431	-6.14957151518487	5.24657028888985	-6.1968685114291	168.973037142936	
2988000000	-6.19694911247583	162.748829662262	-6.13572298809984	5.20009002337134	-6.13356477398241	5.26799585640186	-6.19129294179973	169.175718183639	
2988500000	-6.19686424800771	162.781019481349	-6.13754140399658	5.1959726005121	-6.1478922959131	5.12940798550507	-6.15904463885153	169.130205231725	
2989000000	-6.15306906908103	162.876389926828	-6.15125449311927	5.16681270478438	-6.15000608093104	5.07131249220894	-6.21251494456557	169.059868120295	
2989500000	-6.15116473764875	163.060892442592	-6.15816783336039	5.15030002228059	-6.14689900008661	5.12219530372797	-6.19741751372107	169.275761912672	
2990000000	-6.12522342743066	163.151871395042	-6.13802726684457	5.06473831982964	-6.14270941313113	5.07130274149882	-6.15315658515769	169.329844104239	
2990500000	-6.09904088297713	163.400918248555	-6.13263934777731	5.07391177475112	-6.1426973738215	4.98282430966637	-6.17085503960135	169.440950368485	
2991000000	-6.0698104153223	163.452546603891	-6.1533976629271	5.04566621855008	-6.13103729956645	4.96999910024384	-6.16514132187047	169.326498080199	
2991500000	-6.05447816059479	163.740857639705	-6.14891821344922	4.91294365976296	-6.12650915438084	4.9997670490421	-6.16216751901745	169.335798787414	
2992000000	-6.0461721510282	163.845666501417	-6.15064284382675	4.87760077874472	-6.13734706133457	5.01225995407738	-6.15907526946934	169.549642843818	
2992500000	-6.03750697536908	163.895309042187	-6.15229372136577	4.89193734999985	-6.13864242709314	4.88009094560094	-6.16854674538405	169.525745573077	
2993000000	-6.0029509268055	164.109349167312	-6.15540186338018	4.87683203837828	-6.15044092340727	4.83611756524306	-6.17385145421383	169.598751059615	
2993500000	-5.9910981950331	164.268049961438	-6.1435219146905	4.86878919059675	-6.12531260534616	4.80093796452415	-6.16255970356443	169.754088885631	
2994000000	-5.97020056121469	164.56372761947	-6.13055409729528	4.82141418238778	-6.1361634977849	4.823067375805	-6.15092027069271	169.813736170036	
2994500000	-5.93400488903619	164.650530497615	-6.15272279007053	4.79102562152323	-6.12669485903774	4.84136933133666	-6.15662660958739	169.71361172363	
2995000000	-5.91964212099918	164.842124504183	-6.1365965403423	4.76413809276241	-6.13529810668595	4.73740156272394	-6.13959955837044	169.888644859077	
2995500000	-5.9108362916133	165.010522338425	-6.13919502908128	4.76007076218519	-6.1273686978716	4.70668513718561	-6.13609436530764	169.895400210652	
2996000000	-5.89798928145017	165.20722323435	-6.14270826515915	4.649771198068	-6.11826495472232	4.64051405099348	-6.1202768913817	169.962143978073	
2996500000	-5.90626564969589	165.369722440546	-6.14877439938711	4.67392627416802	-6.14505225795738	4.71319668554157	-6.15498363214581	170.213140959857	
2997000000	-5.8983419907928	165.615251749563	-6.15080301528965	4.75582536562748	-6.14244353875526	4.69114330243015	-6.1541563075773	170.328108659788	
2997500000	-5.87386749670901	165.58522353375	-6.15760552611097	4.63163929726622	-6.1408318336745	4.6469288447672	-6.14295245077034	170.134552893574	
2998000000	-5.86532287930577	165.847647309144	-6.16001019369867	4.64929237798169	-6.13134142758341	4.5957877916709	-6.13315564659116	170.26365901691	
2998500000	-5.84607307440376	165.967500521368	-6.14655401994063	4.45155075232492	-6.1598135292153	4.46699545006956	-6.12193599090998	170.21396730123	
2999000000	-5.84075606038411	166.198103675766	-6.15460936153825	4.51007101044511	-6.13702186889248	4.52162792393467	-6.13634079718262	170.32649256336	
2999500000	-5.84585498462569	166.485617770736	-6.14247326037549	4.56574190302944	-6.14628900328189	4.49411886889596	-6.14486542552001	170.479796267463	
3000000000	-5.79721964204991	166.51650737003	-6.13518087324208	4.46115417368573	-6.13766201585937	4.40336892134312	-6.13279855419903	170.415492652912	
